 vasp.5.4.4.18Apr17-6-g9f103f2a35 (build Jan 12 2023 11:40:15) complex

 executed on             LinuxIFC date 2024.01.13  00:40:56

 INCAR:
 POTCAR:    PAW_PBE C 08Apr2002
 POTCAR:    PAW_PBE C 08Apr2002
   VRHFIN =C: s2p2

   TITEL  = PAW_PBE C 08Apr2002
   POMASS =   12.011; ZVAL   =    4.000    mass and valenz
   ENMAX  =  400.000; ENMIN  =  300.000 eV

  PAW_PBE C 08Apr2002                   :

 POSCAR: POSCAR file written by OVITO Basic 3.7.1
  positions in direct lattice
  velocities in cartesian coordinates
 exchange correlation table for  LEXCH =        8
   RHO(1)=    0.500       N(1)  =     2000
   RHO(2)=  100.500       N(2)  =     4000

 ion  position               nearest neighbor table
   1  0.000  0.000  0.458-   2 1.41  48 1.42  14 1.42
   2  0.083  0.083  0.456-   1 1.41  17 1.42   5 1.42
   3  0.000  0.000  0.382-   4 1.41  50 1.42  16 1.42
   4  0.083  0.083  0.384-   3 1.41  19 1.42   7 1.42
   5  0.999  0.251  0.455-   2 1.42   6 1.42  52 1.44
   6  0.083  0.333  0.456-   9 1.41  21 1.42   5 1.42
   7  0.999  0.251  0.385-   4 1.42   8 1.42  54 1.44
   8  0.083  0.333  0.384-  11 1.41  23 1.42   7 1.42
   9  0.000  0.499  0.458-   6 1.41  56 1.42  10 1.42
  10  0.084  0.583  0.456-  13 1.42   9 1.42  25 1.43
  11  0.000  0.499  0.382-   8 1.41  58 1.42  12 1.42
  12  0.084  0.583  0.384-  15 1.42  11 1.42  27 1.43
  13  0.000  0.750  0.457-  60 1.42  10 1.42  14 1.42
  14  0.084  0.833  0.456-  13 1.42   1 1.42  29 1.43
  15  0.000  0.750  0.383-  62 1.42  12 1.42  16 1.42
  16  0.084  0.833  0.384-  15 1.42   3 1.42  31 1.43
  17  0.251  0.999  0.455-   2 1.42  18 1.42  30 1.44
  18  0.333  0.083  0.456-  33 1.41  21 1.42  17 1.42
  19  0.251  0.999  0.385-   4 1.42  20 1.42  32 1.44
  20  0.333  0.083  0.384-  35 1.41  23 1.42  19 1.42
  21  0.251  0.251  0.455-   6 1.42  18 1.42  22 1.44
  22  0.334  0.334  0.450-  37 1.43  25 1.43  21 1.44
  23  0.251  0.251  0.385-   8 1.42  20 1.42  24 1.44
  24  0.334  0.334  0.390-  39 1.43  27 1.43  23 1.44
  25  0.246  0.501  0.448-  22 1.43  10 1.43  26 1.46
  26  0.293  0.603  0.434-  28 1.43  29 1.46  25 1.46
  27  0.246  0.501  0.392-  24 1.43  12 1.43  28 1.46
  28  0.293  0.603  0.406-  26 1.43  31 1.46  27 1.46
  29  0.246  0.753  0.448-  30 1.43  14 1.43  26 1.46
  30  0.334  0.832  0.450-  43 1.43  29 1.43  17 1.44
  31  0.246  0.753  0.392-  32 1.43  16 1.43  28 1.46
  32  0.334  0.832  0.390-  45 1.43  31 1.43  19 1.44
  33  0.499  0.000  0.457-  18 1.41  44 1.42  34 1.42
  34  0.583  0.084  0.456-  47 1.42  33 1.42  37 1.43
  35  0.499  0.000  0.383-  20 1.41  46 1.42  36 1.42
  36  0.583  0.084  0.384-  49 1.42  35 1.42  39 1.43
  37  0.501  0.246  0.448-  22 1.43  34 1.43  38 1.46
  38  0.603  0.293  0.434-  40 1.43  51 1.46  37 1.46
  39  0.501  0.246  0.392-  24 1.43  36 1.43  40 1.46
  40  0.603  0.293  0.406-  38 1.43  53 1.46  39 1.46
  41  0.603  0.603  0.434-  42 1.43  43 1.46  55 1.46
  42  0.603  0.603  0.406-  41 1.43  45 1.46  57 1.46
  43  0.501  0.753  0.448-  30 1.43  44 1.43  41 1.46
  44  0.583  0.833  0.456-  59 1.42  33 1.42  43 1.43
  45  0.501  0.753  0.392-  32 1.43  46 1.43  42 1.46
  46  0.583  0.833  0.384-  61 1.42  35 1.42  45 1.43
  47  0.750  0.000  0.457-  60 1.42  34 1.42  48 1.42
  48  0.833  0.084  0.456-  47 1.42   1 1.42  51 1.43
  49  0.750  0.000  0.383-  62 1.42  36 1.42  50 1.42
  50  0.833  0.084  0.384-  49 1.42   3 1.42  53 1.43
  51  0.753  0.246  0.448-  52 1.43  48 1.43  38 1.46
  52  0.832  0.334  0.450-  55 1.43  51 1.43   5 1.44
  53  0.753  0.246  0.392-  54 1.43  50 1.43  40 1.46
  54  0.832  0.334  0.390-  57 1.43  53 1.43   7 1.44
  55  0.753  0.501  0.448-  52 1.43  56 1.43  41 1.46
  56  0.833  0.583  0.456-  59 1.42   9 1.42  55 1.43
  57  0.753  0.501  0.392-  54 1.43  58 1.43  42 1.46
  58  0.833  0.583  0.384-  61 1.42  11 1.42  57 1.43
  59  0.750  0.750  0.457-  60 1.42  56 1.42  44 1.42
  60  0.833  0.833  0.458-  59 1.42  13 1.42  47 1.42
  61  0.750  0.750  0.383-  62 1.42  58 1.42  46 1.42
  62  0.833  0.833  0.382-  61 1.42  15 1.42  49 1.42

IMPORTANT INFORMATION: All symmetrisations will be switched off!
NOSYMM: (Re-)initialisation of all symmetry stuff for point group C_1.

Automatic generation of k-mesh.
 generate k-points for:    5    5    1
Space group operators:
 irot       det(A)        alpha          n_x          n_y          n_z        tau_x        tau_y        tau_z
    1     1.000000     0.000001     1.000000     0.000000     0.000000     0.000000     0.000000     0.000000

 Subroutine IBZKPT returns following result:

 Found     13 irreducible k-points:

 Following reciprocal coordinates:
            Coordinates               Weight
  0.000000  0.000000  0.000000      1.000000
  0.200000  0.000000 -0.000000      2.000000
  0.400000  0.000000 -0.000000      2.000000
 -0.000000  0.200000 -0.000000      2.000000
  0.200000  0.200000  0.000000      2.000000
  0.400000  0.200000  0.000000      2.000000
 -0.400000  0.200000  0.000000      2.000000
 -0.200000  0.200000  0.000000      2.000000
 -0.000000  0.400000 -0.000000      2.000000
  0.200000  0.400000  0.000000      2.000000
  0.400000  0.400000  0.000000      2.000000
 -0.400000  0.400000  0.000000      2.000000
 -0.200000  0.400000  0.000000      2.000000

 Following cartesian coordinates:
            Coordinates               Weight
  0.000000  0.000000  0.000000      1.000000
  0.020414 -0.011797  0.000000      2.000000
  0.040827 -0.023594  0.000000      2.000000
  0.000008  0.023576 -0.000000      2.000000
  0.020422  0.011779 -0.000000      2.000000
  0.040835 -0.000018  0.000000      2.000000
 -0.040819  0.047170 -0.000000      2.000000
 -0.020406  0.035373 -0.000000      2.000000
  0.000016  0.047152 -0.000000      2.000000
  0.020430  0.035355 -0.000000      2.000000
  0.040843  0.023558 -0.000000      2.000000
 -0.040811  0.070746 -0.000000      2.000000
 -0.020398  0.058949 -0.000000      2.000000

 TETIRR: Found     72 inequivalent tetrahedra from      150

 SYSTEM =  unknown system
 POSCAR =  POSCAR file written by OVITO Basic 3.7.1

 Startparameter for this run:
   NWRITE =      2    write-flag & timer
   PREC   = accura    normal or accurate (medium, high low for compatibility)
   ISTART =      0    job   : 0-new  1-cont  2-samecut
   ICHARG =      2    charge: 1-file 2-atom 10-const
   ISPIN  =      2    spin polarized calculation?
   LNONCOLLINEAR =      F non collinear calculations
   LSORBIT =      F    spin-orbit coupling
   INIWAV =      1    electr: 0-lowe 1-rand  2-diag
   LASPH  =      F    aspherical Exc in radial PAW
   METAGGA=      F    non-selfconsistent MetaGGA calc.

 Electronic Relaxation 1
   ENCUT  =  850.0 eV  62.47 Ry    7.90 a.u.  23.29 23.29118.75*2*pi/ulx,y,z
   ENINI  =  850.0     initial cutoff
   ENAUG  =  644.9 eV  augmentation charge cutoff
   NELM   =    150;   NELMIN=  2; NELMDL= -5     # of ELM steps
   EDIFF  = 0.1E-06   stopping-criterion for ELM
   LREAL  =      F    real-space projection
   NLSPLINE    = F    spline interpolate recip. space projectors
   LCOMPAT=      F    compatible to vasp.4.4
   GGA_COMPAT  = T    GGA compatible to vasp.4.4-vasp.4.6
   LMAXPAW     = -100 max onsite density
   LMAXMIX     =    2 max onsite mixed and CHGCAR
   VOSKOWN=      0    Vosko Wilk Nusair interpolation
   ROPT   =    0.00000
 Ionic relaxation
   EDIFFG = 0.1E-05   stopping-criterion for IOM
   NSW    =      1    number of steps for IOM
   NBLOCK =      1;   KBLOCK =      1    inner block; outer block
   IBRION =     -1    ionic relax: 0-MD 1-quasi-New 2-CG
   NFREE  =      0    steps in history (QN), initial steepest desc. (CG)
   ISIF   =      2    stress and relaxation
   IWAVPR =     10    prediction:  0-non 1-charg 2-wave 3-comb
   ISYM   =      0    0-nonsym 1-usesym 2-fastsym
   LCORR  =      T    Harris-Foulkes like correction to forces

   POTIM  = 0.5000    time-step for ionic-motion
   TEIN   =    0.0    initial temperature
   TEBEG  =    0.0;   TEEND  =   0.0 temperature during run
   SMASS  =  -3.00    Nose mass-parameter (am)
   estimated Nose-frequenzy (Omega)   =  0.10E-29 period in steps =****** mass=  -0.219E-26a.u.
   SCALEE = 1.0000    scale energy and forces
   NPACO  =    256;   APACO  = 16.0  distance and # of slots for P.C.
   PSTRESS=    0.0 pullay stress

  Mass of Ions in am
   POMASS =  12.01
  Ionic Valenz
   ZVAL   =   4.00
  Atomic Wigner-Seitz radii
  virtual crystal weights
   VCA    =   1.00
   NELECT =     248.0000    total number of electrons
   NUPDOWN=      -1.0000    fix difference up-down

 DOS related values:
   EMIN   =  10.00;   EMAX   =-10.00  energy-range for DOS
   EFERMI =   0.00
   ISMEAR =    -5;   SIGMA  =   0.02  broadening in eV -4-tet -1-fermi 0-gaus

 Electronic relaxation 2 (details)
   IALGO  =     38    algorithm
   LDIAG  =      T    sub-space diagonalisation (order eigenvalues)
   LSUBROT=      F    optimize rotation matrix (better conditioning)
   TURBO    =      0    0=normal 1=particle mesh
   IRESTART =      0    0=no restart 2=restart with 2 vectors
   NREBOOT  =      0    no. of reboots
   NMIN     =      0    reboot dimension
   EREF     =   0.00    reference energy to select bands
   IMIX   =      4    mixing-type and parameters
     AMIX     =   0.40;   BMIX     =  1.00
     AMIX_MAG =   1.60;   BMIX_MAG =  1.00
     AMIN     =   0.10
     WC   =   100.;   INIMIX=   1;  MIXPRE=   1;  MAXMIX= -45

 Intra band minimization:
   WEIMIN = 0.0000     energy-eigenvalue tresh-hold
   EBREAK =  0.13E-09  absolut break condition
   DEPER  =   0.30     relativ break condition

   TIME   =   0.40     timestep for ELM

  volume/ion in A,a.u.               =      66.95       451.80
  Fermi-wavevector in a.u.,A,eV,Ry     =   0.639999  1.209424  5.572936  0.409599
  Thomas-Fermi vector in A             =   1.705861

 Write flags
   LWAVE        =      F    write WAVECAR
   LDOWNSAMPLE  =      F    k-point downsampling of WAVECAR
   LCHARG       =      F    write CHGCAR
   LVTOT        =      F    write LOCPOT, total local potential
   LVHAR        =      F    write LOCPOT, Hartree potential only
   LELF         =      F    write electronic localiz. function (ELF)
   LORBIT       =      0    0 simple, 1 ext, 2 COOP (PROOUT), +10 PAW based schemes

 Dipole corrections
   LMONO  =      F    monopole corrections only (constant potential shift)
   LDIPOL =      F    correct potential (dipole corrections)
   IDIPOL =      0    1-x, 2-y, 3-z, 4-all directions
   EPSILON=  1.0000000 bulk dielectric constant

 Exchange correlation treatment:
   GGA     =    --    GGA type
   VOSKOWN=      0    Vosko Wilk Nusair interpolation
   LHFCALC =     F    Hartree Fock is set to
   LHFONE  =     F    Hartree Fock one center treatment
   AEXX    =    0.0000 exact exchange contribution

 Linear response parameters
   LEPSILON=     F    determine dielectric tensor
   LRPA    =     F    only Hartree local field effects (RPA)
   LNABLA  =     F    use nabla operator in PAW spheres
   LVEL    =     F    velocity operator in full k-point grid
   LINTERFAST=   F  fast interpolation
   KINTER  =     0    interpolate to denser k-point grid
   CSHIFT  =0.1000    complex shift for real part using Kramers Kronig
[...]
   C          34.203          3.410         10.281          0.857
   C          34.060          3.408         10.259          0.855
   C          34.203          3.410         10.281          0.857
   C          34.826          3.420         10.374          0.864
   C          34.731          3.419         10.360          0.863
   C          34.826          3.420         10.374          0.864
   C          34.731          3.419         10.360          0.863
   C          34.826          3.420         10.374          0.864
   C          34.203          3.410         10.281          0.857
   C          34.826          3.420         10.374          0.864
   C          34.203          3.410         10.281          0.857
   C          34.060          3.408         10.259          0.855
   C          33.823          3.404         10.223          0.852
   C          34.060          3.408         10.259          0.855
   C          33.823          3.404         10.223          0.852

  IVDW = 202
  VDW_RADIUS =    50.000 A
  VDW_SR =     0.830
  VDW_D =     6.000
  SCSRAD =   120.000 A
  LSCSGRAD = T
  LSCALER0 = T
  Edisp (eV):   -7.02828

  FORCE on cell =-STRESS in cart. coord.  units (eV):
  Direction    XX          YY          ZZ          XY          YZ          ZX
  Alpha Z    76.07399    76.07399    76.07399
  Ewald  218764.89797218765.43136************     0.55645     0.45230    -0.03531
  Hartree218076.65843218076.82223************     0.34365     0.44379    -0.02754
  E(xc)    -922.77482  -922.77342  -948.58134     0.00141     0.00001    -0.00005
  Local  ************************440159.79088    -0.90211    -0.89564     0.06235
  n-local  -212.65598  -212.65562  -203.77079     0.00542    -0.00005     0.00004
  augment   -23.69410   -23.69462   -22.05582     0.00019    -0.00000    -0.00000
  Kinetic  3756.82209  3756.77712  4195.89737    -0.06057     0.00012     0.00095
  Fock        0.00000     0.00000     0.00000     0.00000     0.00000     0.00000
  vdW        -7.50876    -7.50867    -4.12487    -0.00011    -0.00000    -0.00000
  Total      -0.13714    -0.11665    -0.37967    -0.05565     0.00054     0.00044
  in kB      -0.05293    -0.04503    -0.14655    -0.02148     0.00021     0.00017

 VOLUME and BASIS-vectors are now :
  energy-cutoff  :      850.00
  volume of cell :     4150.85
      direct lattice vectors                 reciprocal lattice vectors
     9.795472477 -0.003335275 -0.000000532     0.102067896 -0.058984534  0.000000066
     4.901452904  8.481562067  0.000008392     0.000040137  0.117879615 -0.000000121
    -0.000002667  0.000051244 49.951752334     0.000000001 -0.000000020  0.020019318

  length of vectors
     9.795473045  9.795975483 49.951752334     0.117885668  0.117879622  0.020019318

 FORCES acting on ions
    electron-ion (+dipol)            ewald-force                    non-local-force                 convergence-correction
   0.238E+00 0.159E+00 -.547E+03   -.142E+00 -.106E+00 0.547E+03   -.921E-01 -.536E-01 -.379E+00   0.203E-06 0.110E-06 -.100E-06
   -.193E+01 -.115E+01 -.515E+03   0.201E+01 0.119E+01 0.514E+03   -.721E-01 -.420E-01 0.574E+00   0.410E-07 -.158E-07 -.502E-07
   0.223E+00 0.149E+00 0.547E+03   -.127E+00 -.949E-01 -.547E+03   -.919E-01 -.536E-01 0.378E+00   -.196E-06 -.999E-07 0.313E-06
   -.193E+01 -.115E+01 0.515E+03   0.200E+01 0.119E+01 -.514E+03   -.729E-01 -.422E-01 -.575E+00   -.254E-06 -.165E-06 0.302E-06
   0.112E+02 -.646E+01 -.513E+03   -.113E+02 0.650E+01 0.514E+03   0.579E-01 -.317E-01 -.478E+00   0.153E-06 -.867E-07 -.150E-06
   0.464E-01 0.231E+01 -.515E+03   -.493E-01 -.240E+01 0.514E+03   0.866E-03 0.802E-01 0.575E+00   0.375E-07 -.244E-07 -.497E-07
   0.112E+02 -.645E+01 0.513E+03   -.112E+02 0.649E+01 -.514E+03   0.587E-01 -.326E-01 0.478E+00   -.578E-07 0.338E-07 0.365E-06
   0.464E-01 0.230E+01 0.515E+03   -.491E-01 -.239E+01 -.514E+03   0.784E-03 0.815E-01 -.576E+00   0.154E-07 0.304E-06 0.302E-06
   -.270E-01 -.328E+00 -.546E+03   0.277E-01 0.228E+00 0.547E+03   -.744E-04 0.112E+00 -.378E+00   0.909E-09 -.235E-06 -.994E-07
   -.141E+02 0.791E+01 -.536E+03   0.141E+02 -.765E+01 0.537E+03   0.176E-02 -.266E+00 -.519E+00   -.337E-06 -.164E-06 -.169E-06
   -.272E-01 -.305E+00 0.546E+03   0.282E-01 0.203E+00 -.547E+03   0.124E-03 0.111E+00 0.377E+00   -.142E-07 0.215E-06 0.314E-06
   -.141E+02 0.791E+01 0.536E+03   0.141E+02 -.765E+01 -.537E+03   0.280E-02 -.266E+00 0.519E+00   -.316E-07 0.359E-06 0.414E-06
   -.517E+01 0.295E+01 -.532E+03   0.500E+01 -.285E+01 0.532E+03   0.161E+00 -.919E-01 0.537E+00   -.174E-06 0.106E-06 -.252E-06
   -.139E+02 0.832E+01 -.536E+03   0.137E+02 -.844E+01 0.537E+03   0.228E+00 0.128E+00 -.519E+00   -.204E-07 0.366E-06 -.174E-06
   -.517E+01 0.295E+01 0.532E+03   0.500E+01 -.285E+01 -.532E+03   0.160E+00 -.919E-01 -.537E+00   0.858E-07 -.439E-07 0.460E-06
   -.139E+02 0.832E+01 0.536E+03   0.137E+02 -.844E+01 -.537E+03   0.229E+00 0.127E+00 0.519E+00   -.321E-06 -.156E-06 0.417E-06
   0.210E-01 0.129E+02 -.513E+03   -.185E-01 -.130E+02 0.513E+03   0.270E-02 0.639E-01 -.477E+00   0.678E-08 0.157E-06 -.132E-06
   0.203E+01 -.115E+01 -.515E+03   -.211E+01 0.119E+01 0.514E+03   0.707E-01 -.406E-01 0.576E+00   -.182E-07 0.139E-07 -.396E-07
   0.252E-01 0.129E+02 0.513E+03   -.233E-01 -.130E+02 -.513E+03   0.223E-02 0.648E-01 0.477E+00   0.129E-08 -.633E-07 0.346E-06
   0.202E+01 -.114E+01 0.515E+03   -.210E+01 0.119E+01 -.514E+03   0.723E-01 -.414E-01 -.577E+00   0.251E-06 -.146E-06 0.292E-06
   -.112E+02 -.646E+01 -.513E+03   0.112E+02 0.650E+01 0.513E+03   -.531E-01 -.315E-01 -.477E+00   -.135E-06 -.836E-07 -.129E-06
   -.266E+02 -.154E+02 -.440E+03   0.265E+02 0.153E+02 0.440E+03   0.112E+00 0.639E-01 0.833E+00   -.355E-06 -.265E-06 -.281E-06
   -.111E+02 -.645E+01 0.513E+03   0.112E+02 0.649E+01 -.513E+03   -.541E-01 -.318E-01 0.477E+00   0.520E-07 0.293E-07 0.344E-06
   -.266E+02 -.154E+02 0.440E+03   0.265E+02 0.153E+02 -.440E+03   0.113E+00 0.642E-01 -.832E+00   0.925E-07 -.102E-07 0.358E-06
   -.531E+02 0.110E+02 -.441E+03   0.533E+02 -.115E+02 0.441E+03   -.233E+00 0.529E+00 -.311E+00   -.212E-06 -.135E-06 -.309E-06
   -.794E+02 0.459E+02 -.240E+03   0.805E+02 -.465E+02 0.240E+03   -.103E+01 0.597E+00 -.202E+00   0.502E-07 -.177E-07 -.761E-06
   -.531E+02 0.110E+02 0.441E+03   0.533E+02 -.115E+02 -.441E+03   -.234E+00 0.528E+00 0.311E+00   -.674E-07 0.334E-06 0.245E-06
   -.794E+02 0.459E+02 0.240E+03   0.805E+02 -.465E+02 -.240E+03   -.103E+01 0.597E+00 0.202E+00   -.223E-06 0.139E-06 -.263E-06
   -.360E+02 0.405E+02 -.441E+03   0.366E+02 -.404E+02 0.441E+03   -.573E+00 -.599E-01 -.310E+00   0.986E-08 0.253E-06 -.311E-06
   0.754E-01 0.308E+02 -.440E+03   -.762E-01 -.306E+02 0.440E+03   0.500E-03 -.129E+00 0.832E+00   0.628E-07 0.421E-06 -.288E-06
   -.360E+02 0.405E+02 0.441E+03   0.366E+02 -.404E+02 -.441E+03   -.574E+00 -.591E-01 0.310E+00   -.322E-06 -.106E-06 0.247E-06
   0.735E-01 0.308E+02 0.440E+03   -.739E-01 -.306E+02 -.440E+03   0.709E-03 -.130E+00 -.831E+00   0.680E-07 -.902E-07 0.364E-06
   -.271E+00 0.146E+00 -.546E+03   0.182E+00 -.950E-01 0.547E+03   0.955E-01 -.556E-01 -.377E+00   -.220E-06 0.126E-06 -.857E-07
   -.267E+00 -.162E+02 -.536E+03   0.486E+00 0.160E+02 0.536E+03   -.228E+00 0.136E+00 -.518E+00   -.309E-06 -.164E-06 -.186E-06
   -.246E+00 0.132E+00 0.546E+03   0.154E+00 -.796E-01 -.547E+03   0.944E-01 -.550E-01 0.377E+00   0.170E-06 -.107E-06 0.300E-06
   -.267E+00 -.162E+02 0.536E+03   0.486E+00 0.160E+02 -.537E+03   -.227E+00 0.136E+00 0.518E+00   0.305E-06 -.138E-06 0.433E-06
   -.170E+02 -.515E+02 -.441E+03   0.167E+02 0.519E+02 0.441E+03   0.341E+00 -.465E+00 -.312E+00   -.183E-06 -.993E-07 -.350E-06
   -.121E+00 -.917E+02 -.240E+03   0.122E+00 0.930E+02 0.240E+03   -.138E-02 -.119E+01 -.201E+00   0.312E-07 0.505E-08 -.802E-06
   -.170E+02 -.515E+02 0.441E+03   0.167E+02 0.519E+02 -.441E+03   0.340E+00 -.465E+00 0.312E+00   0.306E-06 -.205E-06 0.280E-06
   -.124E+00 -.917E+02 0.240E+03   0.125E+00 0.930E+02 -.240E+03   -.113E-02 -.119E+01 0.201E+00   0.451E-07 -.313E-06 -.247E-06
   0.795E+02 0.459E+02 -.240E+03   -.805E+02 -.465E+02 0.240E+03   0.103E+01 0.597E+00 -.202E+00   0.159E-07 -.155E-07 -.809E-06
   0.795E+02 0.459E+02 0.240E+03   -.805E+02 -.465E+02 -.240E+03   0.103E+01 0.597E+00 0.202E+00   0.298E-06 0.131E-06 -.239E-06
   0.361E+02 0.405E+02 -.441E+03   -.367E+02 -.404E+02 0.441E+03   0.573E+00 -.630E-01 -.313E+00   -.437E-08 0.192E-06 -.363E-06
   0.138E+02 0.831E+01 -.536E+03   -.136E+02 -.843E+01 0.536E+03   -.230E+00 0.130E+00 -.518E+00   -.253E-07 0.336E-06 -.195E-06
   0.361E+02 0.404E+02 0.441E+03   -.367E+02 -.404E+02 -.441E+03   0.573E+00 -.621E-01 0.313E+00   0.334E-06 -.172E-06 0.291E-06
   0.139E+02 0.831E+01 0.536E+03   -.136E+02 -.844E+01 -.536E+03   -.230E+00 0.129E+00 0.518E+00   0.251E-06 -.204E-06 0.443E-06
   -.449E-01 -.592E+01 -.532E+03   0.483E-01 0.572E+01 0.532E+03   0.197E-03 0.187E+00 0.539E+00   0.864E-08 -.202E-06 -.259E-06
   0.238E+00 -.162E+02 -.536E+03   -.461E+00 0.161E+02 0.537E+03   0.225E+00 0.135E+00 -.520E+00   0.289E-06 -.145E-06 -.214E-06
   -.406E-01 -.591E+01 0.532E+03   0.431E-01 0.572E+01 -.532E+03   -.231E-03 0.186E+00 -.539E+00   0.225E-07 0.110E-06 0.470E-06
   0.228E+00 -.162E+02 0.536E+03   -.450E+00 0.161E+02 -.537E+03   0.225E+00 0.136E+00 0.520E+00   -.299E-06 -.110E-06 0.463E-06
   0.170E+02 -.515E+02 -.441E+03   -.166E+02 0.519E+02 0.441E+03   -.340E+00 -.465E+00 -.313E+00   0.167E-06 -.109E-06 -.378E-06
   0.267E+02 -.154E+02 -.441E+03   -.266E+02 0.153E+02 0.440E+03   -.109E+00 0.630E-01 0.830E+00   0.306E-06 -.164E-06 -.332E-06
   0.170E+02 -.515E+02 0.441E+03   -.166E+02 0.519E+02 -.441E+03   -.340E+00 -.466E+00 0.312E+00   -.299E-06 -.213E-06 0.297E-06
   0.267E+02 -.154E+02 0.441E+03   -.266E+02 0.153E+02 -.440E+03   -.110E+00 0.637E-01 -.830E+00   -.142E-06 0.958E-07 0.397E-06
   0.531E+02 0.110E+02 -.441E+03   -.533E+02 -.115E+02 0.441E+03   0.232E+00 0.529E+00 -.314E+00   0.168E-06 -.788E-07 -.388E-06
   0.141E+02 0.789E+01 -.536E+03   -.141E+02 -.763E+01 0.537E+03   -.295E-02 -.265E+00 -.519E+00   0.261E-06 -.181E-06 -.220E-06
   0.531E+02 0.110E+02 0.441E+03   -.533E+02 -.115E+02 -.441E+03   0.233E+00 0.528E+00 0.314E+00   0.233E-07 0.374E-06 0.307E-06
   0.142E+02 0.789E+01 0.536E+03   -.141E+02 -.763E+01 -.537E+03   -.410E-02 -.265E+00 0.519E+00   -.655E-07 0.304E-06 0.470E-06
   0.513E+01 0.297E+01 -.532E+03   -.497E+01 -.287E+01 0.531E+03   -.167E+00 -.950E-01 0.540E+00   0.175E-06 0.908E-07 -.261E-06
   -.406E-01 -.119E-01 -.542E+03   0.437E-01 0.143E-01 0.542E+03   -.600E-03 0.670E-03 -.209E+00   -.110E-07 0.356E-08 -.208E-06
   0.513E+01 0.297E+01 0.532E+03   -.497E+01 -.287E+01 -.531E+03   -.166E+00 -.949E-01 -.540E+00   -.931E-07 -.692E-07 0.474E-06
   -.424E-01 -.170E-01 0.542E+03   0.458E-01 0.202E-01 -.542E+03   -.267E-03 0.122E-02 0.209E+00   0.867E-08 0.192E-09 0.527E-06
   -.340E-02 -.272E-03 0.975E-03   -.330E-12 -.234E-13 -.341E-12   0.311E-02 0.381E-04 -.128E-02   -.736E-07 0.123E-07 0.114E-05

 POSITION                                       TOTAL-FORCE (eV/Angst)
      0.00523      0.00278     22.85369         0.000855     -0.001436      0.000291
      1.22600      0.70713     22.79211         0.001459      0.002645      0.002632
      0.00526      0.00281     19.10590         0.002135     -0.000917     -0.000591
      1.22605      0.70716     19.16768         0.000196      0.002379     -0.003110
     11.00944      2.12209     22.74680        -0.002769      0.005527     -0.001661
      2.44888      2.82334     22.79175        -0.002087     -0.013715      0.002781
     11.00947      2.12213     19.21296        -0.000633      0.003247      0.000878
      2.44891      2.82333     19.16801        -0.001954     -0.010756     -0.003303
      2.44967      4.23248     22.85314         0.000631      0.013984      0.001220
      3.68181      4.94205     22.77443        -0.013938     -0.002807      0.006269
      2.44970      4.23253     19.10641         0.001079      0.010581     -0.001479
      3.68183      4.94206     19.18496        -0.011558     -0.002152     -0.005871
      3.67606      6.35964     22.83902        -0.001518      0.007082      0.006055
      4.90735      7.06263     22.77481        -0.011466      0.004598      0.005502
      3.67613      6.35967     19.12034        -0.003836      0.006626     -0.006190
      4.90737      7.06267     19.18462        -0.009266      0.003689     -0.005115
      7.34908      8.46828     22.74615         0.005283     -0.007880     -0.000538
      3.67002      0.70624     22.79106        -0.011269      0.004820      0.003806
      7.34913      8.46830     19.21361         0.004136     -0.005700     -0.000133
      3.67001      0.70628     19.16868        -0.007114      0.002792     -0.004359
      3.68302      2.12449     22.74588         0.010099      0.004806     -0.000675
      4.90537      2.82953     22.46052        -0.009884     -0.007698     -0.006039
      3.68306      2.12451     19.21386         0.007683      0.004126     -0.000089
      4.90538      2.82955     19.49895        -0.007118     -0.006575      0.006970
      4.86486      4.25203     22.37855         0.008505     -0.002553     -0.001487
      5.82859      5.11590     21.69604         0.015496     -0.010863     -0.051547
      4.86493      4.25206     19.58081         0.006420     -0.003328      0.000849
      5.82864      5.11590     20.26331         0.015895     -0.010589      0.052498
      6.09584      6.38200     22.37881         0.009207     -0.000964     -0.000516
      7.34863      7.05724     22.46084        -0.000323      0.009953     -0.007508
      6.09590      6.38199     19.58060         0.008139      0.000558      0.000018
      7.34867      7.05728     19.49866         0.000301      0.007398      0.008354
      4.89016      0.00125     22.85224         0.008966     -0.005793      0.002491
      6.12120      0.71240     22.77368        -0.005804     -0.010839      0.007740
      4.89023      0.00126     19.10727         0.004993     -0.003676     -0.002629
      6.12121      0.71241     19.18568        -0.003858     -0.008947     -0.007274
      6.11624      2.08198     22.37829        -0.000083      0.012352     -0.001161
      7.34660      2.48376     21.69593        -0.000093      0.019918     -0.049730
      6.11630      2.08203     19.58108        -0.002128      0.011285      0.000507
      7.34661      2.48379     20.26343         0.000596      0.020137      0.050575
      8.86726      5.11507     21.69589        -0.017453     -0.011816     -0.051527
      8.86729      5.11508     20.26347        -0.017618     -0.011782      0.052379
      8.60100      6.38153     22.37839        -0.011653     -0.003837     -0.000496
      9.79013      7.06119     22.77357         0.011125      0.008772      0.008358
      8.60104      6.38152     19.58101        -0.011506     -0.001986     -0.000055
      9.79017      7.06123     19.18582         0.010203      0.006749     -0.007933
      7.34548     -0.00234     22.83850         0.003628     -0.004187      0.007110
      8.57039      0.71166     22.77472        -0.002357     -0.009767      0.005385
      7.34553     -0.00227     19.12082         0.002199     -0.007171     -0.007257
      8.57042      0.71167     19.18470        -0.001894     -0.006904     -0.004877
      8.57625      2.08141     22.37911         0.002855      0.009438     -0.002070
      9.78771      2.82814     22.46159         0.011085     -0.008133     -0.008760
      8.57628      2.08148     19.58030         0.003358      0.007424      0.001472
      9.78776      2.82816     19.49793         0.008954     -0.005899      0.009657
      9.82993      4.25052     22.37896        -0.008518     -0.004621     -0.002345
     11.01374      4.93968     22.77422         0.013003      0.000546      0.006855
      9.82994      4.25056     19.58046        -0.006526     -0.005616      0.001628
     11.01381      4.93970     19.18518         0.010140      0.001099     -0.006410
     11.02092      6.35740     22.83816        -0.005535     -0.000488      0.006949
     12.24643      7.06428     22.90020         0.002502      0.003001      0.010885
     11.02095      6.35743     19.12116        -0.004530     -0.000511     -0.006885
     12.24647      7.06429     19.05912         0.003162      0.004375     -0.010494
    total drift:                               -0.000288     -0.000234     -0.000300

  FREE ENERGIE OF THE ION-ELECTRON SYSTEM (eV)
  free  energy   TOTEN  =      -565.19737078 eV

  energy  without entropy=     -565.19737078  energy(sigma->0) =     -565.19737078

 BZINTS: Fermi energy: -3.265478;248.000000 electrons
         Band energy:***********;  BLOECHL correction:  0.000000