 vasp.5.4.4.18Apr17-6-g9f103f2a35 (build Jan 12 2023 11:40:15) complex

 executed on             LinuxIFC date 2023.12.04  09:37:52

 INCAR:
 POTCAR:    PAW_PBE C 08Apr2002
 POTCAR:    PAW_PBE C 08Apr2002
   VRHFIN =C: s2p2

   TITEL  = PAW_PBE C 08Apr2002
   POMASS =   12.011; ZVAL   =    4.000    mass and valenz
   ENMAX  =  400.000; ENMIN  =  300.000 eV

  PAW_PBE C 08Apr2002                   :

 POSCAR: POSCAR file written by OVITO Basic 3.7.1
  positions in direct lattice
  velocities in cartesian coordinates
 exchange correlation table for  LEXCH =        8
   RHO(1)=    0.500       N(1)  =     2000
   RHO(2)=  100.500       N(2)  =     4000

 ion  position               nearest neighbor table
   1  0.997  0.997  0.384-   2 1.39  48 1.43  14 1.43
   2  0.078  0.078  0.383-   1 1.39  17 1.42   5 1.42
   3  0.082  0.082  0.454-   4 1.40  50 1.44  16 1.44
   4  0.164  0.164  0.451-   3 1.40  19 1.43   7 1.43
   5  0.002  0.244  0.384-   6 1.39   2 1.42  52 1.43
   6  0.096  0.312  0.385-   5 1.39   9 1.46
   7  0.081  0.332  0.450-   8 1.41  54 1.42   4 1.43
   8  0.162  0.413  0.445-   7 1.41  11 1.42  22 1.48
   9  0.015  0.483  0.387-  10 1.45   6 1.46  56 1.49
  10  0.091  0.576  0.389-  23 1.42  13 1.44   9 1.45
  11  0.090  0.576  0.451-   8 1.42  58 1.44  12 1.45
  12  0.183  0.651  0.453-  11 1.45  25 1.46  15 1.49
  13  0.001  0.745  0.386-  14 1.42  10 1.44  60 1.45
  14  0.083  0.829  0.385-  13 1.42  27 1.42   1 1.43
  15  0.090  0.826  0.454-  16 1.41  62 1.47  12 1.49
  16  0.169  0.913  0.455-  15 1.41  29 1.42   3 1.44
  17  0.244  0.002  0.384-  18 1.39   2 1.42  28 1.43
  18  0.313  0.096  0.385-  17 1.39  31 1.46
  19  0.332  0.081  0.450-  20 1.41  30 1.42   4 1.43
  20  0.413  0.162  0.445-  19 1.41  33 1.42  22 1.48
  21  0.350  0.349  0.407-  22 1.38  35 1.48  23 1.48
  22  0.317  0.317  0.433-  21 1.38   8 1.48  20 1.48
  23  0.253  0.504  0.395-  24 1.41  10 1.42  21 1.48
  24  0.335  0.586  0.390-  23 1.41  27 1.42  39 1.43
  25  0.354  0.570  0.455-  26 1.39  12 1.46
  26  0.422  0.664  0.456-  25 1.39  41 1.42  29 1.43
  27  0.249  0.750  0.385-  14 1.42  24 1.42  28 1.42
  28  0.332  0.835  0.384-  43 1.42  27 1.42  17 1.43
  29  0.335  0.832  0.456-  16 1.42  30 1.42  26 1.43
  30  0.417  0.916  0.455-  45 1.42  19 1.42  29 1.42
  31  0.483  0.015  0.387-  32 1.45  18 1.46  44 1.49
  32  0.576  0.091  0.389-  35 1.42  47 1.44  31 1.45
  33  0.576  0.090  0.451-  20 1.42  46 1.44  34 1.45
  34  0.651  0.183  0.453-  33 1.45  37 1.46  49 1.49
  35  0.504  0.253  0.395-  36 1.41  32 1.42  21 1.48
  36  0.586  0.335  0.390-  35 1.41  51 1.42  39 1.43
  37  0.570  0.354  0.455-  38 1.39  34 1.46
  38  0.664  0.422  0.456-  37 1.39  41 1.42  53 1.43
  39  0.503  0.503  0.389-  40 1.40  24 1.43  36 1.43
  40  0.585  0.585  0.386-  39 1.40  55 1.44  43 1.44
  41  0.588  0.589  0.457-  42 1.39  26 1.42  38 1.42
  42  0.670  0.670  0.456-  41 1.39  57 1.43  45 1.43
  43  0.498  0.754  0.385-  44 1.41  28 1.42  40 1.44
  44  0.577  0.841  0.386-  43 1.41  59 1.47  31 1.49
  45  0.584  0.837  0.455-  46 1.42  30 1.42  42 1.43
  46  0.665  0.922  0.454-  45 1.42  33 1.44  61 1.45
  47  0.745  0.001  0.386-  48 1.42  32 1.44  60 1.45
  48  0.829  0.083  0.385-  47 1.42  51 1.42   1 1.43
  49  0.826  0.090  0.454-  50 1.41  62 1.48  34 1.49
  50  0.913  0.169  0.455-  49 1.41  53 1.42   3 1.44
  51  0.751  0.249  0.385-  36 1.42  48 1.42  52 1.42
  52  0.835  0.332  0.384-  55 1.42  51 1.42   5 1.43
  53  0.832  0.335  0.456-  50 1.42  54 1.42  38 1.43
  54  0.916  0.418  0.455-   7 1.42  57 1.42  53 1.42
  55  0.754  0.498  0.385-  56 1.41  52 1.42  40 1.44
  56  0.841  0.577  0.386-  55 1.41  59 1.48   9 1.49
  57  0.837  0.584  0.455-  58 1.42  54 1.42  42 1.43
  58  0.922  0.665  0.454-  57 1.42  11 1.44  61 1.45
  59  0.750  0.749  0.386-  60 1.40  44 1.47  56 1.48
  60  0.832  0.832  0.385-  59 1.40  13 1.45  47 1.45
  61  0.835  0.835  0.455-  62 1.40  46 1.45  58 1.45
  62  0.917  0.917  0.454-  61 1.40  15 1.47  49 1.48

  LATTYP: Found a simple monoclinic cell.
 ALAT       =    17.0497545948
 B/A-ratio  =     2.9325935292
 C/A-ratio  =     1.5274827517
 COS(beta)  =    -0.9819528776

  Lattice vectors:

 A1 = ( -14.7634400000,   8.5284800000,   0.0000000000)
 A2 = (   0.0000000000,   0.0000000000, -50.0000000000)
 A3 = (  19.6801600000, -17.0569600000,   0.0000000000)

Analysis of symmetry for initial positions (statically):
 Subroutine PRICEL returns:
 Original cell was already a primitive cell.

 Routine SETGRP: Setting up the symmetry group for a
 simple monoclinic supercell.

 Subroutine GETGRP returns: Found  1 space group operations
 (whereof  1 operations were pure point group operations)
 out of a pool of  4 trial point group operations.

The static configuration has the point symmetry C_1 .

Analysis of symmetry for dynamics (positions and initial velocities):
 Subroutine PRICEL returns:
 Original cell was already a primitive cell.

 Routine SETGRP: Setting up the symmetry group for a
 simple monoclinic supercell.

 Subroutine GETGRP returns: Found  1 space group operations
 (whereof  1 operations were pure point group operations)
 out of a pool of  4 trial point group operations.

The dynamic configuration has the point symmetry C_1 .

 Subroutine INISYM returns: Found  1 space group operations
 (whereof  1 operations are pure point group operations),
 and found     1 'primitive' translations

Automatic generation of k-mesh.
 generate k-points for:    5    5    1
Space group operators:
 irot       det(A)        alpha          n_x          n_y          n_z        tau_x        tau_y        tau_z
    1     1.000000     0.000000     1.000000     0.000000     0.000000     0.000000     0.000000     0.000000

 Subroutine IBZKPT returns following result:

 Found     13 irreducible k-points:

 Following reciprocal coordinates:
            Coordinates               Weight
  0.000000  0.000000  0.000000      1.000000
  0.200000  0.000000  0.000000      2.000000
  0.400000  0.000000  0.000000      2.000000
  0.000000  0.200000  0.000000      2.000000
  0.200000  0.200000  0.000000      2.000000
  0.400000  0.200000  0.000000      2.000000
 -0.400000  0.200000  0.000000      2.000000
 -0.200000  0.200000  0.000000      2.000000
  0.000000  0.400000  0.000000      2.000000
  0.200000  0.400000  0.000000      2.000000
  0.400000  0.400000  0.000000      2.000000
 -0.400000  0.400000  0.000000      2.000000
 -0.200000  0.400000  0.000000      2.000000

 Following cartesian coordinates:
            Coordinates               Weight
  0.000000  0.000000  0.000000      1.000000
  0.020311 -0.011741  0.000000      2.000000
  0.040623 -0.023482  0.000000      2.000000
  0.000000  0.023451  0.000000      2.000000
  0.020311  0.011710  0.000000      2.000000
  0.040623 -0.000032  0.000000      2.000000
 -0.040623  0.046933  0.000000      2.000000
 -0.020311  0.035192  0.000000      2.000000
  0.000000  0.046902  0.000000      2.000000
  0.020311  0.035160  0.000000      2.000000
  0.040623  0.023419  0.000000      2.000000
 -0.040623  0.070384  0.000000      2.000000
 -0.020311  0.058643  0.000000      2.000000

 TETIRR: Found     72 inequivalent tetrahedra from      150

 SYSTEM =  unknown system
 POSCAR =  POSCAR file written by OVITO Basic 3.7.1

 Startparameter for this run:
   NWRITE =      2    write-flag & timer
   PREC   = accura    normal or accurate (medium, high low for compatibility)
   ISTART =      0    job   : 0-new  1-cont  2-samecut
   ICHARG =      2    charge: 1-file 2-atom 10-const
   ISPIN  =      1    spin polarized calculation?
   LNONCOLLINEAR =      F non collinear calculations
   LSORBIT =      F    spin-orbit coupling
   INIWAV =      1    electr: 0-lowe 1-rand  2-diag
   LASPH  =      F    aspherical Exc in radial PAW
   METAGGA=      F    non-selfconsistent MetaGGA calc.

 Electronic Relaxation 1
   ENCUT  =  850.0 eV  62.47 Ry    7.90 a.u.  23.41 23.42118.86*2*pi/ulx,y,z
   ENINI  =  850.0     initial cutoff
   ENAUG  =  644.9 eV  augmentation charge cutoff
   NELM   =    150;   NELMIN=  2; NELMDL= -5     # of ELM steps
   EDIFF  = 0.1E-06   stopping-criterion for ELM
   LREAL  =      F    real-space projection
   NLSPLINE    = F    spline interpolate recip. space projectors
   LCOMPAT=      F    compatible to vasp.4.4
   GGA_COMPAT  = T    GGA compatible to vasp.4.4-vasp.4.6
   LMAXPAW     = -100 max onsite density
   LMAXMIX     =    2 max onsite mixed and CHGCAR
   VOSKOWN=      0    Vosko Wilk Nusair interpolation
   ROPT   =    0.00000
 Ionic relaxation
   EDIFFG = 0.1E-01   stopping-criterion for IOM
   NSW    =   1000    number of steps for IOM
   NBLOCK =      1;   KBLOCK =   1000    inner block; outer block
   IBRION =      1    ionic relax: 0-MD 1-quasi-New 2-CG
   NFREE  =      0    steps in history (QN), initial steepest desc. (CG)
   ISIF   =      3    stress and relaxation
   IWAVPR =     11    prediction:  0-non 1-charg 2-wave 3-comb
   ISYM   =      2    0-nonsym 1-usesym 2-fastsym
   LCORR  =      T    Harris-Foulkes like correction to forces

   POTIM  = 0.5000    time-step for ionic-motion
   TEIN   =    0.0    initial temperature
   TEBEG  =    0.0;   TEEND  =   0.0 temperature during run
   SMASS  =  -3.00    Nose mass-parameter (am)
   estimated Nose-frequenzy (Omega)   =  0.10E-29 period in steps =****** mass=  -0.222E-26a.u.
   SCALEE = 1.0000    scale energy and forces
   NPACO  =    256;   APACO  = 16.0  distance and # of slots for P.C.
   PSTRESS=    0.0 pullay stress

  Mass of Ions in am
   POMASS =  12.01
  Ionic Valenz
   ZVAL   =   4.00
  Atomic Wigner-Seitz radii
  virtual crystal weights
   VCA    =   1.00
   NELECT =     248.0000    total number of electrons
   NUPDOWN=      -1.0000    fix difference up-down

 DOS related values:
   EMIN   =  10.00;   EMAX   =-10.00  energy-range for DOS
   EFERMI =   0.00
   ISMEAR =    -5;   SIGMA  =   0.02  broadening in eV -4-tet -1-fermi 0-gaus

 Electronic relaxation 2 (details)
   IALGO  =     38    algorithm
   LDIAG  =      T    sub-space diagonalisation (order eigenvalues)
   LSUBROT=      F    optimize rotation matrix (better conditioning)
   TURBO    =      0    0=normal 1=particle mesh
   IRESTART =      0    0=no restart 2=restart with 2 vectors
   NREBOOT  =      0    no. of reboots
   NMIN     =      0    reboot dimension
   EREF     =   0.00    reference energy to select bands
   IMIX   =      4    mixing-type and parameters
     AMIX     =   0.40;   BMIX     =  1.00
     AMIX_MAG =   1.60;   BMIX_MAG =  1.00
     AMIN     =   0.10
     WC   =   100.;   INIMIX=   1;  MIXPRE=   1;  MAXMIX= -45

 Intra band minimization:
   WEIMIN = 0.0010     energy-eigenvalue tresh-hold
   EBREAK =  0.16E-09  absolut break condition
   DEPER  =   0.30     relativ break condition

   TIME   =   0.40     timestep for ELM

  volume/ion in A,a.u.               =      67.72       457.02
  Fermi-wavevector in a.u.,A,eV,Ry     =   0.637550  1.204795  5.530362  0.406470
  Thomas-Fermi vector in A             =   1.702594

 Write flags
   LWAVE        =      F    write WAVECAR
   LDOWNSAMPLE  =      F    k-point downsampling of WAVECAR
   LCHARG       =      F    write CHGCAR
[...]
   C          33.874          3.405         10.231          0.853
   C          33.874          3.405         10.231          0.853
   C          33.851          3.404         10.228          0.852
   C          33.982          3.406         10.247          0.854
   C          34.490          3.415         10.324          0.860
   C          33.930          3.406         10.240          0.853
   C          34.177          3.410         10.277          0.856
   C          34.421          3.414         10.313          0.859
   C          34.244          3.411         10.287          0.857
   C          34.244          3.411         10.287          0.857
   C          34.421          3.414         10.313          0.859
  Edisp (eV):   -7.04323

  FORCE on cell =-STRESS in cart. coord.  units (eV):
  Direction    XX          YY          ZZ          XY          YZ          ZX
  Alpha Z    76.95909    76.95909    76.95909
  Ewald  221070.86711221077.25010************    -5.58014  -567.43797  -908.48905
  Hartree220086.32178220109.54280************   -20.11444  -451.51594  -709.25276
  E(xc)    -921.23715  -921.13234  -951.80718    -0.09065    -0.53058    -0.91485
  Local  ************************445505.51173    29.80417  1008.65472  1599.96619
  n-local  -214.81272  -213.99636  -199.67822    -0.70653     0.32037     0.55280
  augment   -23.87192   -23.84182   -22.04748    -0.02594     0.04520     0.07759
  Kinetic  3731.78355  3735.67868  4237.46645    -3.36268    10.31359    17.80784
  Fock        0.00000     0.00000     0.00000     0.00000     0.00000     0.00000
  vdW        -7.43781    -7.56326    -4.30416     0.10840     0.03216     0.05523
  Total      -0.10630    -0.14815     0.29841     0.03221    -0.11846    -0.19701
  in kB      -0.04151    -0.05785     0.11652     0.01258    -0.04626    -0.07693

 VOLUME and BASIS-vectors are now :
  energy-cutoff  :      850.00
  volume of cell :     4103.11
      direct lattice vectors                 reciprocal lattice vectors
     9.831746971  0.154921399 -0.012301623     0.102681583 -0.061569245  0.000077168
     5.056664567  8.433192708 -0.013099929    -0.001886186  0.119710184  0.000094558
    -0.061791620 -0.040435843 49.959113637     0.000024789  0.000016229  0.020016412

  length of vectors
     9.832975159  9.833044666 49.959168214     0.119725876  0.119725080  0.020016434

 FORCES acting on ions
    electron-ion (+dipol)            ewald-force                    non-local-force                 convergence-correction
   0.829E+01 0.483E+01 0.514E+03   -.842E+01 -.490E+01 -.514E+03   0.125E+00 0.719E-01 0.213E-01   0.253E-03 0.136E-03 -.838E-03
   0.619E+01 0.361E+01 0.526E+03   -.630E+01 -.368E+01 -.526E+03   0.108E+00 0.624E-01 0.167E-01   0.542E-05 0.195E-04 -.666E-03
   0.815E+01 0.464E+01 -.466E+03   -.817E+01 -.466E+01 0.466E+03   0.101E-01 0.590E-02 -.163E+00   -.602E-05 0.531E-05 -.916E-05
   0.455E+01 0.257E+01 -.421E+03   -.485E+01 -.275E+01 0.420E+03   0.282E+00 0.162E+00 0.810E+00   0.202E-03 0.118E-03 -.870E-04
   -.127E+02 -.251E+02 0.521E+03   0.132E+02 0.257E+02 -.521E+03   -.581E+00 -.595E+00 0.140E+00   0.486E-04 -.743E-04 -.506E-03
   -.863E+02 0.219E+00 0.514E+03   0.866E+02 -.181E+00 -.514E+03   -.355E+00 -.617E-01 -.246E-04   0.136E-03 -.180E-03 -.445E-03
   -.547E+01 0.128E+01 -.440E+03   0.534E+01 -.122E+01 0.440E+03   0.124E+00 -.654E-01 -.990E-01   0.604E-04 -.160E-03 0.111E-03
   -.190E+02 -.609E+01 -.388E+03   0.191E+02 0.674E+01 0.388E+03   -.648E-01 -.654E+00 -.896E-01   0.621E-04 0.526E-04 0.270E-03
   -.906E+01 0.189E+02 0.493E+03   0.931E+01 -.193E+02 -.492E+03   -.269E+00 0.389E+00 -.128E+00   -.169E-04 -.194E-03 -.477E-03
   0.204E+02 0.167E+02 0.472E+03   -.208E+02 -.169E+02 -.472E+03   0.485E+00 0.209E+00 0.918E-01   0.268E-03 -.105E-04 -.524E-03
   -.247E+02 -.933E+01 -.471E+03   0.250E+02 0.963E+01 0.472E+03   -.423E+00 -.315E+00 -.918E-01   -.124E-03 -.243E-03 0.523E-03
   -.118E+02 0.172E+02 -.493E+03   0.120E+02 -.176E+02 0.492E+03   -.202E+00 0.427E+00 0.128E+00   0.179E-03 -.807E-04 0.478E-03
   0.120E+02 0.905E+01 0.503E+03   -.121E+02 -.918E+01 -.503E+03   0.167E+00 0.116E+00 0.179E+00   0.941E-04 -.177E-03 -.760E-03
   0.108E+02 0.909E+01 0.502E+03   -.110E+02 -.935E+01 -.502E+03   0.184E+00 0.239E+00 -.335E+00   0.246E-03 -.177E-03 -.753E-03
   0.143E+02 0.133E+02 -.485E+03   -.142E+02 -.136E+02 0.485E+03   -.350E-01 0.346E+00 -.822E-01   0.189E-03 0.138E-04 0.386E-03
   0.143E+02 -.471E+00 -.483E+03   -.146E+02 0.269E+00 0.483E+03   0.228E+00 0.174E+00 0.117E+00   0.133E-04 -.248E-03 0.180E-03
   -.281E+02 0.168E+01 0.521E+03   0.289E+02 -.148E+01 -.521E+03   -.806E+00 -.205E+00 0.139E+00   -.159E-04 0.706E-04 -.507E-03
   -.431E+02 -.747E+02 0.514E+03   0.433E+02 0.750E+02 -.514E+03   -.231E+00 -.276E+00 -.444E-04   -.914E-04 0.200E-03 -.446E-03
   -.159E+01 -.545E+01 -.440E+03   0.157E+01 0.531E+01 0.440E+03   0.609E-02 0.140E+00 -.987E-01   -.111E-03 0.133E-03 0.113E-03
   -.148E+02 -.135E+02 -.388E+03   0.153E+02 0.132E+02 0.388E+03   -.599E+00 0.271E+00 -.908E-01   0.713E-04 0.284E-04 0.270E-03
   0.181E+02 0.105E+02 0.201E+03   -.192E+02 -.111E+02 -.201E+03   0.112E+01 0.645E+00 -.106E+00   0.112E-03 0.627E-04 -.273E-03
   -.181E+02 -.105E+02 -.201E+03   0.192E+02 0.111E+02 0.201E+03   -.112E+01 -.645E+00 0.106E+00   -.112E-03 -.633E-04 0.273E-03
   0.148E+02 0.135E+02 0.388E+03   -.153E+02 -.132E+02 -.388E+03   0.599E+00 -.271E+00 0.908E-01   -.760E-04 -.300E-04 -.268E-03
   0.159E+01 0.545E+01 0.440E+03   -.157E+01 -.530E+01 -.440E+03   -.609E-02 -.140E+00 0.987E-01   0.113E-03 -.126E-03 -.114E-03
   0.431E+02 0.747E+02 -.514E+03   -.433E+02 -.750E+02 0.514E+03   0.231E+00 0.276E+00 -.152E-03   0.942E-04 -.199E-03 0.446E-03
   0.281E+02 -.168E+01 -.521E+03   -.289E+02 0.148E+01 0.521E+03   0.806E+00 0.205E+00 -.139E+00   0.145E-04 -.765E-04 0.506E-03
   -.551E+01 -.521E+00 0.502E+03   0.555E+01 0.833E+00 -.502E+03   -.611E-01 -.296E+00 0.462E+00   -.246E-03 0.967E-04 -.425E-03
   -.313E+01 0.478E+01 0.503E+03   0.331E+01 -.487E+01 -.503E+03   -.158E+00 0.795E-01 -.206E-01   0.151E-03 0.173E-03 -.346E-03
   0.313E+01 -.479E+01 -.503E+03   -.331E+01 0.487E+01 0.503E+03   0.158E+00 -.795E-01 0.205E-01   -.152E-03 -.169E-03 0.346E-03
   0.551E+01 0.522E+00 -.502E+03   -.555E+01 -.834E+00 0.502E+03   0.612E-01 0.296E+00 -.462E+00   0.246E-03 -.100E-03 0.426E-03
   0.118E+02 -.172E+02 0.493E+03   -.120E+02 0.176E+02 -.492E+03   0.202E+00 -.427E+00 -.128E+00   -.179E-03 0.813E-04 -.477E-03
   0.247E+02 0.933E+01 0.471E+03   -.250E+02 -.962E+01 -.472E+03   0.423E+00 0.315E+00 0.918E-01   0.123E-03 0.245E-03 -.522E-03
   -.204E+02 -.167E+02 -.472E+03   0.208E+02 0.169E+02 0.472E+03   -.485E+00 -.209E+00 -.918E-01   -.268E-03 0.879E-05 0.526E-03
   0.906E+01 -.189E+02 -.493E+03   -.931E+01 0.193E+02 0.492E+03   0.269E+00 -.389E+00 0.128E+00   0.172E-04 0.194E-03 0.477E-03
   0.190E+02 0.609E+01 0.388E+03   -.191E+02 -.674E+01 -.388E+03   0.647E-01 0.654E+00 0.896E-01   -.656E-04 -.561E-04 -.268E-03
   0.547E+01 -.128E+01 0.440E+03   -.534E+01 0.122E+01 -.440E+03   -.124E+00 0.653E-01 0.989E-01   -.532E-04 0.158E-03 -.112E-03
   0.863E+02 -.218E+00 -.514E+03   -.866E+02 0.180E+00 0.514E+03   0.355E+00 0.617E-01 -.175E-03   -.135E-03 0.182E-03 0.445E-03
   0.127E+02 0.251E+02 -.521E+03   -.132E+02 -.257E+02 0.521E+03   0.581E+00 0.595E+00 -.140E+00   -.522E-04 0.750E-04 0.505E-03
   -.455E+01 -.257E+01 0.421E+03   0.486E+01 0.275E+01 -.420E+03   -.282E+00 -.162E+00 -.810E+00   -.197E-03 -.114E-03 0.862E-04
   -.814E+01 -.464E+01 0.466E+03   0.817E+01 0.466E+01 -.466E+03   -.102E-01 -.596E-02 0.163E+00   0.322E-05 -.621E-05 0.954E-05
   -.619E+01 -.361E+01 -.526E+03   0.630E+01 0.368E+01 0.526E+03   -.108E+00 -.624E-01 -.169E-01   -.110E-04 -.220E-04 0.665E-03
   -.829E+01 -.483E+01 -.514E+03   0.842E+01 0.491E+01 0.514E+03   -.125E+00 -.718E-01 -.212E-01   -.245E-03 -.131E-03 0.838E-03
   -.143E+02 0.472E+00 0.483E+03   0.146E+02 -.270E+00 -.483E+03   -.228E+00 -.174E+00 -.117E+00   -.881E-05 0.249E-03 -.180E-03
   -.143E+02 -.133E+02 0.485E+03   0.142E+02 0.136E+02 -.485E+03   0.349E-01 -.346E+00 0.822E-01   -.192E-03 -.155E-04 -.386E-03
   -.109E+02 -.909E+01 -.502E+03   0.110E+02 0.935E+01 0.502E+03   -.184E+00 -.240E+00 0.335E+00   -.246E-03 0.171E-03 0.754E-03
   -.120E+02 -.905E+01 -.503E+03   0.122E+02 0.917E+01 0.503E+03   -.167E+00 -.115E+00 -.179E+00   -.904E-04 0.177E-03 0.762E-03
   0.138E+02 0.593E+01 0.503E+03   -.140E+02 -.599E+01 -.503E+03   0.184E+00 0.864E-01 0.179E+00   -.108E-03 0.168E-03 -.759E-03
   0.133E+02 0.490E+01 0.502E+03   -.136E+02 -.493E+01 -.502E+03   0.299E+00 0.400E-01 -.334E+00   -.384E-04 0.319E-03 -.750E-03
   0.187E+02 0.564E+01 -.485E+03   -.190E+02 -.542E+01 0.485E+03   0.282E+00 -.204E+00 -.818E-01   0.101E-03 0.152E-03 0.385E-03
   0.681E+01 0.126E+02 -.483E+03   -.710E+01 -.127E+02 0.483E+03   0.265E+00 0.110E+00 0.116E+00   -.194E-03 0.142E-03 0.177E-03
   -.324E+01 -.444E+01 0.502E+03   0.353E+01 0.432E+01 -.503E+03   -.287E+00 0.953E-01 0.462E+00   -.476E-04 -.275E-03 -.421E-03
   0.254E+01 -.503E+01 0.504E+03   -.253E+01 0.523E+01 -.504E+03   -.100E-01 -.176E+00 -.198E-01   0.224E-03 0.546E-04 -.343E-03
   -.254E+01 0.504E+01 -.504E+03   0.253E+01 -.523E+01 0.504E+03   0.100E-01 0.176E+00 0.197E-01   -.222E-03 -.560E-04 0.342E-03
   0.324E+01 0.444E+01 -.502E+03   -.353E+01 -.432E+01 0.503E+03   0.287E+00 -.953E-01 -.462E+00   0.442E-04 0.276E-03 0.422E-03
   -.680E+01 -.126E+02 0.483E+03   0.710E+01 0.127E+02 -.483E+03   -.265E+00 -.110E+00 -.116E+00   0.198E-03 -.140E-03 -.177E-03
   -.187E+02 -.564E+01 0.485E+03   0.190E+02 0.542E+01 -.485E+03   -.282E+00 0.204E+00 0.818E-01   -.104E-03 -.154E-03 -.384E-03
   -.133E+02 -.491E+01 -.502E+03   0.136E+02 0.493E+01 0.502E+03   -.300E+00 -.400E-01 0.335E+00   0.334E-04 -.316E-03 0.751E-03
   -.138E+02 -.593E+01 -.503E+03   0.140E+02 0.599E+01 0.503E+03   -.184E+00 -.864E-01 -.179E+00   0.110E-03 -.165E-03 0.760E-03
   0.142E+02 0.825E+01 0.478E+03   -.142E+02 -.822E+01 -.477E+03   -.456E-01 -.262E-01 -.454E+00   0.541E-04 0.308E-04 -.532E-03
   0.491E+01 0.287E+01 0.504E+03   -.504E+01 -.295E+01 -.505E+03   0.127E+00 0.731E-01 0.200E+00   -.895E-04 -.506E-04 -.773E-03
   -.491E+01 -.287E+01 -.504E+03   0.504E+01 0.295E+01 0.504E+03   -.127E+00 -.731E-01 -.200E+00   0.871E-04 0.494E-04 0.774E-03
   -.142E+02 -.825E+01 -.478E+03   0.142E+02 0.822E+01 0.477E+03   0.456E-01 0.262E-01 0.454E+00   -.536E-04 -.306E-04 0.533E-03
   -.111E-03 -.212E-04 0.196E-03   0.583E-12 -.320E-13 -.114E-11   0.189E-04 -.406E-04 -.409E-03   0.512E-07 0.185E-06 0.150E-04

 POSITION                                       TOTAL-FORCE (eV/Angst)
     14.79634      8.53252     19.12525        -0.004996     -0.003738     -0.061155
      1.11051      0.63806     19.12293        -0.007087     -0.003025     -0.039013
      1.17427      0.67559     22.62769        -0.011034     -0.005941     -0.058998
      2.38363      1.37318     22.46983        -0.019053     -0.011392     -0.065283
      1.23731      2.02716     19.15396        -0.009060     -0.009093     -0.017785
      2.56669      2.50608     19.22711         0.006605     -0.016170     -0.009237
      2.42943      2.78497     22.47416         0.001015     -0.015183     -0.042401
      3.63502      3.47468     22.23218        -0.011429      0.004219     -0.014250
      2.60598      3.99000     19.30456         0.004224     -0.014359     -0.010315
      3.79054      4.82611     19.40958         0.021659     -0.004523     -0.018752
      3.79501      4.82937     22.53865        -0.006723     -0.021434      0.018751
      5.11182      5.43620     22.64365         0.010442     -0.011011      0.010456
      3.75196      6.24609     19.23466         0.012202     -0.010710     -0.049230
      4.96914      6.97505     19.19456        -0.000094     -0.020120     -0.051000
      5.04476      6.92503     22.68104         0.008013     -0.003199     -0.006854
      6.23600      7.69043     22.68256        -0.008404     -0.019610     -0.035128
      2.37641      0.05235     19.15445        -0.011283     -0.003928     -0.018024
      3.45658      0.96333     19.22742        -0.010987      0.013775     -0.009397
      3.62861      0.70591     22.47420        -0.012522      0.008722     -0.042175
      4.82931      1.40414     22.23243        -0.002052     -0.012077     -0.014261
      5.20651      3.00098     20.36370         0.021345      0.012292     -0.000050
      4.66608      2.68959     21.58503        -0.021295     -0.012262     -0.000027
      5.04327      4.28643     19.71629         0.001892      0.011909      0.014328
      6.24397      4.98466     19.47455         0.012561     -0.008467      0.042098
      6.41600      4.72723     22.72134         0.011153     -0.013681      0.009336
      7.49618      5.63821     22.79432         0.011091      0.003713      0.017934
      6.22836      6.35880     19.23883        -0.011849      0.021144     -0.004561
      7.45733      7.08527     19.19225         0.013577     -0.008697      0.008418
      7.47192      7.03848     22.74341        -0.013655      0.008824     -0.008479
      8.70089      7.76496     22.69678         0.011887     -0.021187      0.004570
      4.76076      0.25437     19.30507        -0.010418      0.011024     -0.010463
      6.07757      0.86120     19.41003         0.006731      0.021446     -0.018699
      6.08204      0.86445     22.53909        -0.021668      0.004546      0.018800
      7.26660      1.70056     22.64416        -0.004187      0.014354      0.010304
      6.23757      2.21588     19.71655         0.011213     -0.004291      0.014306
      7.44316      2.90560     19.47460        -0.000798      0.015094      0.042315
      7.30589      3.18448     22.72166        -0.006485      0.016266      0.009166
      8.63528      3.66341     22.79482         0.008874      0.008971      0.017679
      7.48896      4.31739     19.47896         0.019281      0.011520      0.065223
      8.69832      5.01498     19.32112         0.010760      0.005831      0.058981
      8.76208      5.05251     22.82582         0.006927      0.002983      0.038959
      9.96465      5.74616     22.79801         0.005556      0.004029      0.061212
      8.69325      6.43333     19.25312         0.008617      0.019589      0.035077
      9.88449      7.19873     19.25459        -0.008135      0.003148      0.006838
      9.96011      7.14870     22.74098        -0.000135      0.019733      0.051139
     11.17729      7.87766     22.70086        -0.011991      0.010823      0.049379
      7.28743      0.11683     19.23520        -0.002908      0.015467     -0.049189
      8.52786      0.80547     19.19492        -0.017882      0.011191     -0.050630
      8.52180      0.89710     22.68178         0.001090      0.008326     -0.007009
      9.78078      1.54505     22.68343        -0.020577      0.002459     -0.035446
      8.62485      2.20407     19.23886         0.012290     -0.021492     -0.004071
      9.86906      2.90415     19.19221        -0.000833      0.016900      0.008946
      9.83528      2.94133     22.74428         0.000832     -0.016953     -0.009025
     11.07949      3.64142     22.69758        -0.012287      0.021500      0.004057
      9.92355      4.30043     19.25306         0.020705     -0.002340      0.035376
     11.18253      4.94839     19.25466        -0.001205     -0.008378      0.006987
     11.17647      5.04002     22.74143         0.017435     -0.011135      0.050759
     12.41690      5.72866     22.70112         0.003100     -0.015366      0.049333
     11.13724      6.42182     19.25362         0.000216      0.000156     -0.009883
     12.35208      7.12259     19.19741        -0.001109     -0.000443     -0.049377
     12.40892      7.15609     22.72579         0.000988      0.000373      0.049522
     13.62375      7.85686     22.66967        -0.000140     -0.000120      0.009917
    total drift:                               -0.000093     -0.000062     -0.000198

  FREE ENERGIE OF THE ION-ELECTRON SYSTEM (eV)
  free  energy   TOTEN  =      -567.41819877 eV

  energy  without entropy=     -567.41819877  energy(sigma->0) =     -567.41819877

 d Force = 0.1832933E-02[ 0.140E-02, 0.227E-02]  d Energy = 0.1806270E-02 0.267E-04
 d Force = 0.2402614E+01[ 0.240E+01, 0.240E+01]  d Ewald  =-0.2626004E+02 0.287E+02

 Quasi-Newton relaxation of ions (Broydens 2nd method)
  g(Force)  = 0.412E-02   g(Stress)= 0.179E-03

 retain information from N=  3 steps
 eigenvalues of (default step * inverse Hessian matrix)
  average eigenvalue of G=   2.0107
 eigenvalue spectrum of G is  0.0505  2.9907  2.9907

 reached required accuracy - stopping structural energy minimisation