 vasp.5.4.4.18Apr17-6-g9f103f2a35 (build Jan 12 2023 11:40:15) complex

 executed on             LinuxIFC date 2024.01.13  00:39:03

 INCAR:
 POTCAR:    PAW_PBE C 08Apr2002
 POTCAR:    PAW_PBE C 08Apr2002
   VRHFIN =C: s2p2

   TITEL  = PAW_PBE C 08Apr2002
   POMASS =   12.011; ZVAL   =    4.000    mass and valenz
   ENMAX  =  400.000; ENMIN  =  300.000 eV

  PAW_PBE C 08Apr2002                   :

 POSCAR: POSCAR file written by OVITO Basic 3.7.1
  positions in direct lattice
  velocities in cartesian coordinates
 exchange correlation table for  LEXCH =        8
   RHO(1)=    0.500       N(1)  =     2000
   RHO(2)=  100.500       N(2)  =     4000

 ion  position               nearest neighbor table
   1  0.995  0.995  0.383-   2 1.39  48 1.40  14 1.40
   2  0.076  0.076  0.383-   1 1.39  17 1.40   5 1.40
   3  0.081  0.081  0.453-   4 1.41  16 1.42  50 1.42
   4  0.162  0.162  0.450-   3 1.41  19 1.41   7 1.41
   5  0.004  0.242  0.383-   2 1.40  52 1.40   6 1.41
   6  0.111  0.297  0.385-   5 1.41   9 1.49  18 1.78
   7  0.080  0.331  0.450-  54 1.39   8 1.41   4 1.41
   8  0.161  0.411  0.445-  11 1.40   7 1.41  22 1.45
   9  0.023  0.475  0.387-  10 1.45   6 1.49  56 1.49
  10  0.094  0.572  0.389-  23 1.40  13 1.43   9 1.45
  11  0.094  0.573  0.451-   8 1.40  58 1.43  12 1.45
  12  0.192  0.643  0.453-  11 1.45  25 1.49  15 1.49
  13  0.002  0.742  0.385-  14 1.42  60 1.43  10 1.43
  14  0.082  0.827  0.384-  27 1.40   1 1.40  13 1.42
  15  0.093  0.822  0.454-  16 1.42  62 1.47  12 1.49
  16  0.169  0.911  0.454-  29 1.40  15 1.42   3 1.42
  17  0.242  0.004  0.383-   2 1.40  28 1.40  18 1.41
  18  0.297  0.111  0.385-  17 1.41  31 1.49   6 1.78
  19  0.331  0.080  0.450-  30 1.39  20 1.41   4 1.41
  20  0.411  0.161  0.445-  33 1.40  19 1.41  22 1.45
  21  0.351  0.351  0.408-  22 1.37  23 1.45  35 1.45
  22  0.315  0.315  0.432-  21 1.37  20 1.45   8 1.45
  23  0.255  0.505  0.395-  10 1.40  24 1.41  21 1.45
  24  0.336  0.587  0.390-  27 1.39  23 1.41  39 1.41
  25  0.370  0.556  0.455-  26 1.41  12 1.49  37 1.78
  26  0.424  0.663  0.457-  41 1.40  29 1.40  25 1.41
  27  0.250  0.751  0.385-  24 1.39  14 1.40  28 1.43
  28  0.331  0.836  0.384-  43 1.40  17 1.40  27 1.43
  29  0.336  0.831  0.456-  16 1.40  26 1.40  30 1.43
  30  0.417  0.915  0.455-  19 1.39  45 1.40  29 1.43
  31  0.475  0.023  0.387-  32 1.45  18 1.49  44 1.49
  32  0.573  0.093  0.389-  35 1.40  47 1.43  31 1.45
  33  0.573  0.094  0.451-  20 1.40  46 1.43  34 1.45
  34  0.643  0.192  0.453-  33 1.45  37 1.49  49 1.49
  35  0.506  0.255  0.395-  32 1.40  36 1.41  21 1.45
  36  0.587  0.336  0.390-  51 1.39  35 1.41  39 1.41
  37  0.556  0.370  0.455-  38 1.41  34 1.49  25 1.78
  38  0.663  0.424  0.457-  41 1.40  53 1.40  37 1.41
  39  0.505  0.505  0.390-  40 1.41  24 1.41  36 1.41
  40  0.586  0.586  0.387-  39 1.41  43 1.42  55 1.42
  41  0.590  0.590  0.457-  42 1.39  26 1.40  38 1.40
  42  0.671  0.671  0.457-  41 1.39  57 1.40  45 1.40
  43  0.498  0.756  0.386-  28 1.40  44 1.42  40 1.42
  44  0.573  0.845  0.386-  43 1.42  59 1.47  31 1.49
  45  0.584  0.839  0.456-  30 1.40  42 1.40  46 1.42
  46  0.664  0.924  0.455-  45 1.42  61 1.43  33 1.43
  47  0.743  0.002  0.385-  48 1.42  60 1.43  32 1.43
  48  0.828  0.082  0.384-  51 1.40   1 1.40  47 1.42
  49  0.822  0.093  0.454-  50 1.42  62 1.47  34 1.49
  50  0.911  0.169  0.454-  53 1.40  49 1.42   3 1.42
  51  0.751  0.249  0.385-  36 1.39  48 1.40  52 1.43
  52  0.836  0.331  0.384-  55 1.40   5 1.40  51 1.43
  53  0.831  0.336  0.456-  50 1.40  38 1.40  54 1.43
  54  0.915  0.417  0.455-   7 1.39  57 1.40  53 1.43
  55  0.756  0.498  0.386-  52 1.40  56 1.42  40 1.42
  56  0.845  0.573  0.386-  55 1.42  59 1.47   9 1.49
  57  0.839  0.584  0.456-  54 1.40  42 1.40  58 1.42
  58  0.924  0.665  0.455-  57 1.42  61 1.43  11 1.43
  59  0.750  0.750  0.386-  60 1.40  44 1.47  56 1.47
  60  0.831  0.831  0.385-  59 1.40  13 1.43  47 1.43
  61  0.835  0.835  0.455-  62 1.40  46 1.43  58 1.43
  62  0.917  0.917  0.454-  61 1.40  15 1.47  49 1.47

IMPORTANT INFORMATION: All symmetrisations will be switched off!
NOSYMM: (Re-)initialisation of all symmetry stuff for point group C_1.

Automatic generation of k-mesh.
 generate k-points for:    6    6    1
Space group operators:
 irot       det(A)        alpha          n_x          n_y          n_z        tau_x        tau_y        tau_z
    1     1.000000     0.000001     1.000000     0.000000     0.000000     0.000000     0.000000     0.000000

 Subroutine IBZKPT returns following result:

 Found     20 irreducible k-points:

 Following reciprocal coordinates:
            Coordinates               Weight
  0.000000  0.000000  0.000000      1.000000
  0.166667 -0.000000 -0.000000      2.000000
  0.333333 -0.000000  0.000000      2.000000
  0.500000 -0.000000  0.000000      1.000000
  0.000000  0.166667 -0.000000      2.000000
  0.166667  0.166667 -0.000000      2.000000
  0.333333  0.166667 -0.000000      2.000000
  0.500000  0.166667  0.000000      2.000000
 -0.333333  0.166667 -0.000000      2.000000
 -0.166667  0.166667 -0.000000      2.000000
  0.000000  0.333333  0.000000      2.000000
  0.166667  0.333333  0.000000      2.000000
  0.333333  0.333333  0.000000      2.000000
  0.500000  0.333333  0.000000      2.000000
 -0.333333  0.333333  0.000000      2.000000
 -0.166667  0.333333  0.000000      2.000000
 -0.000000  0.500000  0.000000      1.000000
  0.166667  0.500000  0.000000      2.000000
  0.333333  0.500000 -0.000000      2.000000
  0.500000  0.500000 -0.000000      1.000000

 Following cartesian coordinates:
            Coordinates               Weight
  0.000000  0.000000  0.000000      1.000000
  0.017114 -0.010262  0.000013      2.000000
  0.034227 -0.020523  0.000026      2.000000
  0.051341 -0.030785  0.000039      1.000000
 -0.000314  0.019952  0.000016      2.000000
  0.016799  0.009690  0.000029      2.000000
  0.033913 -0.000571  0.000041      2.000000
  0.051026 -0.010833  0.000054      2.000000
 -0.034542  0.040475 -0.000010      2.000000
 -0.017428  0.030213  0.000003      2.000000
 -0.000629  0.039903  0.000032      2.000000
  0.016485  0.029642  0.000044      2.000000
  0.033598  0.019380  0.000057      2.000000
  0.050712  0.009119  0.000070      2.000000
 -0.034856  0.060426  0.000006      2.000000
 -0.017742  0.050165  0.000019      2.000000
 -0.000943  0.059855  0.000047      1.000000
  0.016171  0.049594  0.000060      2.000000
  0.033284  0.039332  0.000073      2.000000
  0.050398  0.029070  0.000086      1.000000

 TETIRR: Found    108 inequivalent tetrahedra from      216

 SYSTEM =  unknown system
 POSCAR =  POSCAR file written by OVITO Basic 3.7.1

 Startparameter for this run:
   NWRITE =      2    write-flag & timer
   PREC   = accura    normal or accurate (medium, high low for compatibility)
   ISTART =      0    job   : 0-new  1-cont  2-samecut
   ICHARG =      2    charge: 1-file 2-atom 10-const
   ISPIN  =      2    spin polarized calculation?
   LNONCOLLINEAR =      F non collinear calculations
   LSORBIT =      F    spin-orbit coupling
   INIWAV =      1    electr: 0-lowe 1-rand  2-diag
   LASPH  =      F    aspherical Exc in radial PAW
   METAGGA=      F    non-selfconsistent MetaGGA calc.

 Electronic Relaxation 1
   ENCUT  =  850.0 eV  62.47 Ry    7.90 a.u.  23.37 23.38118.76*2*pi/ulx,y,z
   ENINI  =  850.0     initial cutoff
   ENAUG  =  644.9 eV  augmentation charge cutoff
   NELM   =    150;   NELMIN=  2; NELMDL= -5     # of ELM steps
   EDIFF  = 0.1E-06   stopping-criterion for ELM
   LREAL  =      F    real-space projection
   NLSPLINE    = F    spline interpolate recip. space projectors
   LCOMPAT=      F    compatible to vasp.4.4
   GGA_COMPAT  = T    GGA compatible to vasp.4.4-vasp.4.6
   LMAXPAW     = -100 max onsite density
   LMAXMIX     =    2 max onsite mixed and CHGCAR
   VOSKOWN=      0    Vosko Wilk Nusair interpolation
   ROPT   =    0.00000
 Ionic relaxation
   EDIFFG = 0.1E-05   stopping-criterion for IOM
   NSW    =      1    number of steps for IOM
   NBLOCK =      1;   KBLOCK =      1    inner block; outer block
   IBRION =     -1    ionic relax: 0-MD 1-quasi-New 2-CG
   NFREE  =      0    steps in history (QN), initial steepest desc. (CG)
   ISIF   =      2    stress and relaxation
   IWAVPR =     10    prediction:  0-non 1-charg 2-wave 3-comb
   ISYM   =      0    0-nonsym 1-usesym 2-fastsym
   LCORR  =      T    Harris-Foulkes like correction to forces

   POTIM  = 0.5000    time-step for ionic-motion
   TEIN   =    0.0    initial temperature
   TEBEG  =    0.0;   TEEND  =   0.0 temperature during run
   SMASS  =  -3.00    Nose mass-parameter (am)
   estimated Nose-frequenzy (Omega)   =  0.10E-29 period in steps =****** mass=  -0.221E-26a.u.
   SCALEE = 1.0000    scale energy and forces
   NPACO  =    256;   APACO  = 16.0  distance and # of slots for P.C.
   PSTRESS=    0.0 pullay stress

  Mass of Ions in am
   POMASS =  12.01
  Ionic Valenz
   ZVAL   =   4.00
  Atomic Wigner-Seitz radii
  virtual crystal weights
   VCA    =   1.00
   NELECT =     248.0000    total number of electrons
   NUPDOWN=      -1.0000    fix difference up-down

 DOS related values:
   EMIN   =  10.00;   EMAX   =-10.00  energy-range for DOS
   EFERMI =   0.00
   ISMEAR =    -5;   SIGMA  =   0.02  broadening in eV -4-tet -1-fermi 0-gaus

 Electronic relaxation 2 (details)
   IALGO  =     38    algorithm
   LDIAG  =      T    sub-space diagonalisation (order eigenvalues)
   LSUBROT=      F    optimize rotation matrix (better conditioning)
   TURBO    =      0    0=normal 1=particle mesh
   IRESTART =      0    0=no restart 2=restart with 2 vectors
   NREBOOT  =      0    no. of reboots
   NMIN     =      0    reboot dimension
   EREF     =   0.00    reference energy to select bands
   IMIX   =      4    mixing-type and parameters
     AMIX     =   0.40;   BMIX     =  1.00
     AMIX_MAG =   1.60;   BMIX_MAG =  1.00
     AMIN     =   0.10
     WC   =   100.;   INIMIX=   1;  MIXPRE=   1;  MAXMIX= -45

 Intra band minimization:
   WEIMIN = 0.0000     energy-eigenvalue tresh-hold
   EBREAK =  0.13E-09  absolut break condition
   DEPER  =   0.30     relativ break condition

   TIME   =   0.40     timestep for ELM

  volume/ion in A,a.u.               =      66.18       446.60
  Fermi-wavevector in a.u.,A,eV,Ry     =   0.642472  1.214096  5.616080  0.412770
  Thomas-Fermi vector in A             =   1.709153

 Write flags
   LWAVE        =      F    write WAVECAR
   LDOWNSAMPLE  =      F    k-point downsampling of WAVECAR
   LCHARG       =      F    write CHGCAR
   LVTOT        =      F    write LOCPOT, total local potential
   LVHAR        =      F    write LOCPOT, Hartree potential only
   LELF         =      F    write electronic localiz. function (ELF)
   LORBIT       =      0    0 simple, 1 ext, 2 COOP (PROOUT), +10 PAW based schemes

 Dipole corrections
   LMONO  =      F    monopole corrections only (constant potential shift)
   LDIPOL =      F    correct potential (dipole corrections)
   IDIPOL =      0    1-x, 2-y, 3-z, 4-all directions
   EPSILON=  1.0000000 bulk dielectric constant

 Exchange correlation treatment:
   GGA     =    --    GGA type
[...]
   C          33.933          3.406         10.240          0.853
   C          34.491          3.415         10.324          0.860
   C          33.984          3.406         10.248          0.854
   C          33.853          3.404         10.228          0.852
   C          33.877          3.405         10.231          0.853
   C          33.876          3.405         10.231          0.853
   C          33.853          3.404         10.228          0.852
   C          33.984          3.406         10.248          0.854
   C          34.491          3.415         10.324          0.860
   C          33.933          3.406         10.240          0.853
   C          34.179          3.410         10.277          0.856
   C          34.427          3.414         10.314          0.860
   C          34.242          3.411         10.287          0.857
   C          34.242          3.411         10.287          0.857
   C          34.427          3.414         10.314          0.860

  IVDW = 202
  VDW_RADIUS =    50.000 A
  VDW_SR =     0.830
  VDW_D =     6.000
  SCSRAD =   120.000 A
  LSCSGRAD = T
  LSCALER0 = T
  Edisp (eV):   -7.03929

  FORCE on cell =-STRESS in cart. coord.  units (eV):
  Direction    XX          YY          ZZ          XY          YZ          ZX
  Alpha Z    76.95909    76.95909    76.95909
  Ewald  221070.86711221077.25010************    -5.58014  -567.43797  -908.48905
  Hartree220086.48227220109.79161************   -20.19069  -451.54501  -709.30319
  E(xc)    -921.24244  -921.13461  -951.81052    -0.09325    -0.53046    -0.91464
  Local  ************************445505.63431    30.05155  1008.68116  1600.01270
  n-local  -214.80937  -213.97544  -199.65647    -0.72091     0.32757     0.56479
  augment   -23.87317   -23.84203   -22.04815    -0.02681     0.04521     0.07763
  Kinetic  3731.99178  3735.53079  4237.42645    -3.05557    10.28868    17.76494
  Fock        0.00000     0.00000     0.00000     0.00000     0.00000     0.00000
  vdW        -7.42966    -7.55459    -4.30430     0.10795     0.03210     0.05508
  Total       0.14364    -0.43269     0.22765     0.49213    -0.13873    -0.23173
  in kB       0.05609    -0.16896     0.08889     0.19217    -0.05417    -0.09049

 VOLUME and BASIS-vectors are now :
  energy-cutoff  :      850.00
  volume of cell :     4103.11
      direct lattice vectors                 reciprocal lattice vectors
     9.831746971  0.154921399 -0.012301623     0.102681583 -0.061569245  0.000077168
     5.056664567  8.433192708 -0.013099929    -0.001886186  0.119710184  0.000094558
    -0.061791620 -0.040435843 49.959113637     0.000024789  0.000016229  0.020016412

  length of vectors
     9.832975159  9.833044666 49.959168214     0.119725876  0.119725080  0.020016434

 FORCES acting on ions
    electron-ion (+dipol)            ewald-force                    non-local-force                 convergence-correction
   0.825E+01 0.481E+01 0.514E+03   -.842E+01 -.490E+01 -.514E+03   0.129E+00 0.738E-01 0.218E-01   0.119E-05 0.681E-06 -.159E-06
   0.620E+01 0.362E+01 0.526E+03   -.630E+01 -.368E+01 -.526E+03   0.121E+00 0.701E-01 0.185E-01   -.349E-06 -.207E-06 0.551E-07
   0.814E+01 0.464E+01 -.466E+03   -.817E+01 -.466E+01 0.466E+03   0.297E-03 0.229E-03 -.168E+00   0.774E-06 0.443E-06 0.911E-06
   0.457E+01 0.258E+01 -.421E+03   -.485E+01 -.275E+01 0.420E+03   0.288E+00 0.166E+00 0.824E+00   0.197E-06 0.110E-06 0.773E-06
   -.127E+02 -.251E+02 0.521E+03   0.132E+02 0.257E+02 -.521E+03   -.571E+00 -.603E+00 0.142E+00   -.248E-06 0.265E-06 0.365E-06
   -.863E+02 0.252E+00 0.514E+03   0.866E+02 -.181E+00 -.514E+03   -.355E+00 -.574E-01 -.433E-02   0.959E-06 0.120E-06 0.753E-06
   -.548E+01 0.126E+01 -.440E+03   0.534E+01 -.122E+01 0.440E+03   0.117E+00 -.691E-01 -.970E-01   0.393E-06 0.266E-06 0.631E-06
   -.190E+02 -.609E+01 -.388E+03   0.191E+02 0.674E+01 0.388E+03   -.666E-01 -.652E+00 -.806E-01   -.374E-07 0.130E-06 0.578E-06
   -.906E+01 0.189E+02 0.493E+03   0.931E+01 -.193E+02 -.492E+03   -.269E+00 0.369E+00 -.132E+00   0.202E-06 -.900E-06 0.785E-06
   0.204E+02 0.167E+02 0.472E+03   -.208E+02 -.169E+02 -.472E+03   0.480E+00 0.207E+00 0.967E-01   0.124E-05 -.959E-06 0.102E-05
   -.247E+02 -.934E+01 -.471E+03   0.250E+02 0.963E+01 0.472E+03   -.420E+00 -.312E+00 -.967E-01   -.181E-06 -.142E-05 0.280E-06
   -.118E+02 0.172E+02 -.493E+03   0.120E+02 -.176E+02 0.492E+03   -.185E+00 0.417E+00 0.132E+00   0.788E-06 -.356E-07 0.438E-06
   0.120E+02 0.904E+01 0.503E+03   -.121E+02 -.918E+01 -.503E+03   0.157E+00 0.118E+00 0.174E+00   0.186E-06 -.740E-06 0.204E-06
   0.109E+02 0.910E+01 0.502E+03   -.110E+02 -.935E+01 -.502E+03   0.189E+00 0.244E+00 -.335E+00   0.633E-06 -.361E-06 0.869E-07
   0.143E+02 0.133E+02 -.485E+03   -.142E+02 -.136E+02 0.485E+03   -.352E-01 0.341E+00 -.819E-01   0.853E-06 -.530E-06 0.910E-06
   0.143E+02 -.463E+00 -.483E+03   -.146E+02 0.269E+00 0.483E+03   0.228E+00 0.174E+00 0.117E+00   0.620E-06 -.840E-06 0.104E-05
   -.281E+02 0.166E+01 0.521E+03   0.289E+02 -.148E+01 -.521E+03   -.808E+00 -.192E+00 0.141E+00   0.112E-06 -.357E-06 0.366E-06
   -.430E+02 -.748E+02 0.514E+03   0.433E+02 0.750E+02 -.514E+03   -.227E+00 -.278E+00 -.435E-02   0.584E-06 0.763E-06 0.753E-06
   -.161E+01 -.545E+01 -.440E+03   0.157E+01 0.531E+01 0.440E+03   -.486E-03 0.136E+00 -.968E-01   0.431E-06 0.204E-06 0.630E-06
   -.147E+02 -.134E+02 -.388E+03   0.153E+02 0.132E+02 0.388E+03   -.598E+00 0.268E+00 -.818E-01   0.948E-07 -.104E-06 0.580E-06
   0.181E+02 0.105E+02 0.201E+03   -.192E+02 -.111E+02 -.201E+03   0.112E+01 0.649E+00 -.120E+00   -.277E-06 -.161E-06 0.799E-06
   -.181E+02 -.105E+02 -.201E+03   0.192E+02 0.111E+02 0.201E+03   -.112E+01 -.649E+00 0.120E+00   -.130E-06 -.762E-07 0.951E-06
   0.147E+02 0.135E+02 0.388E+03   -.153E+02 -.132E+02 -.388E+03   0.598E+00 -.268E+00 0.818E-01   -.302E-06 -.128E-05 0.133E-05
   0.161E+01 0.544E+01 0.440E+03   -.157E+01 -.530E+01 -.440E+03   0.482E-03 -.136E+00 0.967E-01   -.693E-06 -.709E-06 0.698E-06
   0.430E+02 0.748E+02 -.514E+03   -.433E+02 -.750E+02 0.514E+03   0.227E+00 0.278E+00 0.415E-02   -.137E-07 0.297E-06 0.373E-06
   0.281E+02 -.166E+01 -.521E+03   -.289E+02 0.148E+01 0.521E+03   0.808E+00 0.192E+00 -.141E+00   -.186E-06 0.677E-06 0.599E-06
   -.551E+01 -.525E+00 0.502E+03   0.555E+01 0.833E+00 -.502E+03   -.626E-01 -.297E+00 0.466E+00   -.965E-07 -.216E-06 0.145E-06
   -.313E+01 0.478E+01 0.503E+03   0.331E+01 -.487E+01 -.503E+03   -.157E+00 0.860E-01 -.207E-01   0.919E-07 0.799E-06 0.113E-06
   0.313E+01 -.478E+01 -.503E+03   -.331E+01 0.487E+01 0.503E+03   0.157E+00 -.860E-01 0.206E-01   -.187E-06 -.629E-06 0.899E-06
   0.551E+01 0.526E+00 -.502E+03   -.555E+01 -.834E+00 0.502E+03   0.626E-01 0.298E+00 -.466E+00   -.194E-06 0.238E-06 0.819E-06
   0.118E+02 -.172E+02 0.493E+03   -.120E+02 0.176E+02 -.492E+03   0.185E+00 -.417E+00 -.132E+00   -.687E-06 0.618E-06 0.785E-06
   0.247E+02 0.934E+01 0.471E+03   -.250E+02 -.962E+01 -.472E+03   0.420E+00 0.312E+00 0.967E-01   -.210E-06 0.155E-05 0.103E-05
   -.204E+02 -.167E+02 -.472E+03   0.208E+02 0.169E+02 0.472E+03   -.480E+00 -.207E+00 -.967E-01   -.132E-05 0.551E-06 0.281E-06
   0.906E+01 -.189E+02 -.493E+03   -.931E+01 0.193E+02 0.492E+03   0.269E+00 -.369E+00 0.132E+00   0.361E-06 0.701E-06 0.439E-06
   0.190E+02 0.609E+01 0.388E+03   -.191E+02 -.674E+01 -.388E+03   0.665E-01 0.652E+00 0.806E-01   -.126E-05 0.384E-06 0.133E-05
   0.548E+01 -.126E+01 0.440E+03   -.534E+01 0.122E+01 -.440E+03   -.117E+00 0.690E-01 0.969E-01   -.968E-06 -.242E-06 0.701E-06
   0.863E+02 -.251E+00 -.514E+03   -.866E+02 0.180E+00 0.514E+03   0.355E+00 0.575E-01 0.413E-02   0.255E-06 -.168E-06 0.374E-06
   0.127E+02 0.251E+02 -.521E+03   -.132E+02 -.257E+02 0.521E+03   0.571E+00 0.603E+00 -.142E+00   0.489E-06 -.506E-06 0.599E-06
   -.457E+01 -.258E+01 0.421E+03   0.486E+01 0.275E+01 -.420E+03   -.288E+00 -.166E+00 -.824E+00   -.540E-06 -.306E-06 0.683E-06
   -.814E+01 -.464E+01 0.466E+03   0.817E+01 0.466E+01 -.466E+03   -.418E-03 -.285E-03 0.168E+00   -.677E-06 -.377E-06 0.199E-06
   -.620E+01 -.362E+01 -.526E+03   0.630E+01 0.368E+01 0.526E+03   -.121E+00 -.701E-01 -.187E-01   0.242E-06 0.137E-06 0.880E-06
   -.826E+01 -.481E+01 -.514E+03   0.842E+01 0.491E+01 0.514E+03   -.128E+00 -.737E-01 -.217E-01   -.111E-05 -.637E-06 0.112E-05
   -.143E+02 0.464E+00 0.483E+03   0.146E+02 -.270E+00 -.483E+03   -.228E+00 -.174E+00 -.117E+00   -.308E-06 0.772E-06 0.594E-07
   -.143E+02 -.133E+02 0.485E+03   0.142E+02 0.136E+02 -.485E+03   0.351E-01 -.341E+00 0.819E-01   -.232E-06 0.592E-06 0.209E-06
   -.109E+02 -.910E+01 -.502E+03   0.110E+02 0.935E+01 0.502E+03   -.189E+00 -.244E+00 0.335E+00   -.889E-06 0.340E-06 0.926E-06
   -.120E+02 -.904E+01 -.503E+03   0.122E+02 0.917E+01 0.503E+03   -.157E+00 -.118E+00 -.174E+00   -.438E-06 0.702E-06 0.787E-06
   0.138E+02 0.592E+01 0.503E+03   -.140E+02 -.599E+01 -.503E+03   0.181E+00 0.769E-01 0.174E+00   -.546E-06 0.528E-06 0.205E-06
   0.133E+02 0.490E+01 0.502E+03   -.136E+02 -.493E+01 -.502E+03   0.306E+00 0.420E-01 -.334E+00   0.298E-08 0.723E-06 0.880E-07
   0.187E+02 0.561E+01 -.485E+03   -.190E+02 -.542E+01 0.485E+03   0.278E+00 -.202E+00 -.815E-01   -.425E-07 0.100E-05 0.911E-06
   0.682E+01 0.126E+02 -.483E+03   -.710E+01 -.127E+02 0.483E+03   0.265E+00 0.110E+00 0.116E+00   -.417E-06 0.958E-06 0.104E-05
   -.325E+01 -.444E+01 0.502E+03   0.353E+01 0.432E+01 -.503E+03   -.289E+00 0.946E-01 0.466E+00   -.243E-06 0.172E-07 0.147E-06
   0.254E+01 -.503E+01 0.504E+03   -.253E+01 0.523E+01 -.504E+03   -.376E-02 -.178E+00 -.199E-01   0.739E-06 -.330E-06 0.113E-06
   -.254E+01 0.503E+01 -.504E+03   0.253E+01 -.523E+01 0.504E+03   0.377E-02 0.178E+00 0.198E-01   -.646E-06 0.158E-06 0.900E-06
   0.325E+01 0.444E+01 -.502E+03   -.353E+01 -.432E+01 0.503E+03   0.289E+00 -.946E-01 -.466E+00   0.104E-06 -.286E-06 0.821E-06
   -.681E+01 -.126E+02 0.483E+03   0.710E+01 0.127E+02 -.483E+03   -.265E+00 -.110E+00 -.117E+00   0.509E-06 -.642E-06 0.601E-07
   -.187E+02 -.560E+01 0.485E+03   0.190E+02 0.542E+01 -.485E+03   -.278E+00 0.202E+00 0.815E-01   0.404E-06 -.487E-06 0.208E-06
   -.133E+02 -.490E+01 -.502E+03   0.136E+02 0.493E+01 0.502E+03   -.306E+00 -.420E-01 0.334E+00   -.160E-06 -.938E-06 0.925E-06
   -.138E+02 -.593E+01 -.503E+03   0.140E+02 0.599E+01 0.503E+03   -.181E+00 -.769E-01 -.174E+00   0.383E-06 -.728E-06 0.787E-06
   0.142E+02 0.822E+01 0.478E+03   -.142E+02 -.822E+01 -.477E+03   -.531E-01 -.306E-01 -.460E+00   0.128E-06 0.787E-07 -.128E-08
   0.493E+01 0.289E+01 0.504E+03   -.504E+01 -.295E+01 -.505E+03   0.138E+00 0.795E-01 0.204E+00   -.426E-06 -.246E-06 -.109E-06
   -.493E+01 -.289E+01 -.504E+03   0.504E+01 0.295E+01 0.504E+03   -.138E+00 -.795E-01 -.204E+00   0.141E-06 0.924E-07 0.107E-05
   -.142E+02 -.822E+01 -.478E+03   0.142E+02 0.822E+01 0.477E+03   0.531E-01 0.305E-01 0.460E+00   0.806E-07 0.502E-07 0.114E-05
   -.115E-03 -.227E-04 0.175E-03   0.288E-12 0.124E-12 0.625E-12   0.234E-04 -.381E-04 -.411E-03   -.819E-06 -.469E-06 0.364E-04

 POSITION                                       TOTAL-FORCE (eV/Angst)
     14.79634      8.53252     19.12525        -0.035601     -0.021400     -0.059239
      1.11051      0.63806     19.12293         0.020382      0.012835     -0.034552
      1.17427      0.67559     22.62769        -0.028782     -0.016176     -0.061706
      2.38363      1.37318     22.46983         0.001242      0.000325     -0.056752
      1.23731      2.02716     19.15396        -0.019042     -0.012903     -0.021513
      2.56669      2.50608     19.22711        -0.006398      0.021643     -0.005712
      2.42943      2.78497     22.47416        -0.015459     -0.037574     -0.028944
      3.63502      3.47468     22.23218         0.015688      0.005584     -0.030680
      2.60598      3.99000     19.30456         0.008959     -0.040622     -0.016391
      3.79054      4.82611     19.40958         0.033319      0.003331     -0.007606
      3.79501      4.82937     22.53865        -0.019354     -0.027614      0.007607
      5.11182      5.43620     22.64365         0.030798     -0.028236      0.016533
      3.75196      6.24609     19.23466        -0.005641     -0.015579     -0.051367
      4.96914      6.97505     19.19456         0.009684     -0.002714     -0.049157
      5.04476      6.92503     22.68104        -0.014629      0.017574     -0.006460
      6.23600      7.69043     22.68256        -0.001380     -0.011496     -0.035030
      2.37641      0.05235     19.15445        -0.019560     -0.010669     -0.021746
      3.45658      0.96333     19.22742         0.015231     -0.016415     -0.005861
      3.62861      0.70591     22.47420        -0.040157      0.005672     -0.028715
      4.82931      1.40414     22.23243         0.012705      0.010717     -0.030707
      5.20651      3.00098     20.36370         0.054545      0.031446     -0.027237
      4.66608      2.68959     21.58503        -0.054498     -0.031418      0.027157
      5.04327      4.28643     19.71629        -0.012868     -0.010886      0.030774
      6.24397      4.98466     19.47455         0.040199     -0.005414      0.028638
      6.41600      4.72723     22.72134        -0.015062      0.016510      0.005799
      7.49618      5.63821     22.79432         0.019366      0.010451      0.021656
      6.22836      6.35880     19.23883        -0.014194      0.016151     -0.001469
      7.45733      7.08527     19.19225         0.017437     -0.005016      0.008410
      7.47192      7.03848     22.74341        -0.017513      0.005145     -0.008471
      8.70089      7.76496     22.69678         0.014230     -0.016197      0.001479
      4.76076      0.25437     19.30507        -0.030776      0.028249     -0.016540
      6.07757      0.86120     19.41003         0.019363      0.027628     -0.007553
      6.08204      0.86445     22.53909        -0.033325     -0.003309      0.007656
      7.26660      1.70056     22.64416        -0.008924      0.040615      0.016380
      6.23757      2.21588     19.71655        -0.015906     -0.005658      0.030735
      7.44316      2.90560     19.47460         0.015680      0.037485      0.028858
      7.30589      3.18448     22.72166         0.006519     -0.021545      0.005641
      8.63528      3.66341     22.79482         0.018855      0.012780      0.021407
      7.48896      4.31739     19.47896        -0.001013     -0.000195      0.056692
      8.69832      5.01498     19.32112         0.028507      0.016067      0.061688
      8.76208      5.05251     22.82582        -0.020542     -0.012877      0.034497
      9.96465      5.74616     22.79801         0.036162      0.021692      0.059294
      8.69325      6.43333     19.25312         0.001592      0.011474      0.034980
      9.88449      7.19873     19.25459         0.014508     -0.017626      0.006444
      9.96011      7.14870     22.74098        -0.009914      0.002325      0.049297
     11.17729      7.87766     22.70086         0.005854      0.015692      0.051515
      7.28743      0.11683     19.23520        -0.016047      0.002457     -0.051329
      8.52786      0.80547     19.19492         0.002064      0.010952     -0.048784
      8.52180      0.89710     22.68178         0.007746     -0.021699     -0.006608
      9.78078      1.54505     22.68343        -0.010033      0.004486     -0.035351
      8.62485      2.20407     19.23886         0.006791     -0.021035     -0.000981
      9.86906      2.90415     19.19221         0.004289      0.018408      0.008937
      9.83528      2.94133     22.74428        -0.004288     -0.018460     -0.009016
     11.07949      3.64142     22.69758        -0.006791      0.021043      0.000967
      9.92355      4.30043     19.25306         0.010161     -0.004368      0.035281
     11.18253      4.94839     19.25466        -0.007860      0.021647      0.006585
     11.17647      5.04002     22.74143        -0.002512     -0.010896      0.048914
     12.41690      5.72866     22.70112         0.016240     -0.002355      0.051473
     11.13724      6.42182     19.25362        -0.045248     -0.026085     -0.010143
     12.35208      7.12259     19.19741         0.035415      0.020631     -0.047116
     12.40892      7.15609     22.72579        -0.035536     -0.020700      0.047262
     13.62375      7.85686     22.66967         0.045323      0.026121      0.010178
    total drift:                               -0.000092     -0.000061     -0.000199

  FREE ENERGIE OF THE ION-ELECTRON SYSTEM (eV)
  free  energy   TOTEN  =      -567.41383330 eV

  energy  without entropy=     -567.41383330  energy(sigma->0) =     -567.41383330

 BZINTS: Fermi energy: -3.493903;248.000000 electrons
         Band energy:***********;  BLOECHL correction:  0.000000