 vasp.5.4.4.18Apr17-6-g9f103f2a35 (build Jan 12 2023 11:40:15) complex

 executed on             LinuxIFC date 2023.12.04  09:39:53

 INCAR:
 POTCAR:    PAW_PBE C 08Apr2002
 POTCAR:    PAW_PBE C 08Apr2002
   VRHFIN =C: s2p2

   TITEL  = PAW_PBE C 08Apr2002
   POMASS =   12.011; ZVAL   =    4.000    mass and valenz
   ENMAX  =  400.000; ENMIN  =  300.000 eV

  PAW_PBE C 08Apr2002                   :

 POSCAR: POSCAR file written by OVITO Basic 3.7.8
  positions in direct lattice
  velocities in cartesian coordinates
 exchange correlation table for  LEXCH =        8
   RHO(1)=    0.500       N(1)  =     2000
   RHO(2)=  100.500       N(2)  =     4000

 ion  position               nearest neighbor table
   1  1.000  1.000  0.468-  26 1.42   8 1.42   2 1.42
   2  0.083  0.083  0.468-   9 1.42   3 1.42   1 1.42
   3  1.000  0.250  0.468-  28 1.42   2 1.42   4 1.42
   4  0.083  0.333  0.468-  11 1.42   5 1.42   3 1.42
   5  1.000  0.500  0.468-  30 1.42   4 1.42   6 1.42
   6  0.083  0.583  0.468-  13 1.42   7 1.42   5 1.42
   7  1.000  0.750  0.468-  32 1.42   6 1.42   8 1.42
   8  0.083  0.833  0.468-  15 1.42   1 1.42   7 1.42
   9  0.250  1.000  0.468-   2 1.42  16 1.42  10 1.42
  10  0.333  0.083  0.468-  17 1.42  11 1.42   9 1.42
  11  0.250  0.250  0.468-   4 1.42  10 1.42  12 1.42
  12  0.333  0.333  0.468-  19 1.42  13 1.42  11 1.42
  13  0.250  0.500  0.468-   6 1.42  12 1.42  14 1.42
  14  0.333  0.583  0.468-  21 1.42  15 1.42  13 1.42
  15  0.250  0.750  0.468-   8 1.42  14 1.42  16 1.42
  16  0.333  0.833  0.468-  23 1.42   9 1.42  15 1.42
  17  0.500  1.000  0.468-  10 1.42  24 1.42  18 1.42
  18  0.583  0.083  0.468-  25 1.42  19 1.42  17 1.42
  19  0.500  0.250  0.468-  12 1.42  18 1.42  20 1.42
  20  0.583  0.333  0.468-  27 1.42  21 1.42  19 1.42
  21  0.500  0.500  0.468-  14 1.42  20 1.42  22 1.42
  22  0.583  0.583  0.468-  29 1.42  23 1.42  21 1.42
  23  0.500  0.750  0.468-  16 1.42  22 1.42  24 1.42
  24  0.583  0.833  0.468-  31 1.42  17 1.42  23 1.42
  25  0.750  1.000  0.468-  18 1.42  32 1.42  26 1.42
  26  0.833  0.083  0.468-   1 1.42  27 1.42  25 1.42
  27  0.750  0.250  0.468-  20 1.42  26 1.42  28 1.42
  28  0.833  0.333  0.468-   3 1.42  29 1.42  27 1.42
  29  0.750  0.500  0.468-  22 1.42  28 1.42  30 1.42
  30  0.833  0.583  0.468-   5 1.42  31 1.42  29 1.42
  31  0.750  0.750  0.468-  24 1.42  30 1.42  32 1.42
  32  0.833  0.833  0.468-   7 1.42  25 1.42  31 1.42

IMPORTANT INFORMATION: All symmetrisations will be switched off!
NOSYMM: (Re-)initialisation of all symmetry stuff for point group C_1.

Automatic generation of k-mesh.
 generate k-points for:    5    5    1
Space group operators:
 irot       det(A)        alpha          n_x          n_y          n_z        tau_x        tau_y        tau_z
    1     1.000000     0.000000     1.000000     0.000000     0.000000     0.000000     0.000000     0.000000

 Subroutine IBZKPT returns following result:

 Found     13 irreducible k-points:

 Following reciprocal coordinates:
            Coordinates               Weight
  0.000000  0.000000  0.000000      1.000000
  0.200000  0.000000  0.000000      2.000000
  0.400000  0.000000  0.000000      2.000000
  0.000000  0.200000  0.000000      2.000000
  0.200000  0.200000  0.000000      2.000000
  0.400000  0.200000  0.000000      2.000000
 -0.400000  0.200000  0.000000      2.000000
 -0.200000  0.200000  0.000000      2.000000
  0.000000  0.400000  0.000000      2.000000
  0.200000  0.400000  0.000000      2.000000
  0.400000  0.400000  0.000000      2.000000
 -0.400000  0.400000  0.000000      2.000000
 -0.200000  0.400000  0.000000      2.000000

 Following cartesian coordinates:
            Coordinates               Weight
  0.000000  0.000000  0.000000      1.000000
  0.020311 -0.011741  0.000000      2.000000
  0.040623 -0.023482  0.000000      2.000000
  0.000000  0.023451  0.000000      2.000000
  0.020311  0.011710  0.000000      2.000000
  0.040623 -0.000032  0.000000      2.000000
 -0.040623  0.046933  0.000000      2.000000
 -0.020311  0.035192  0.000000      2.000000
  0.000000  0.046902  0.000000      2.000000
  0.020311  0.035160  0.000000      2.000000
  0.040623  0.023419  0.000000      2.000000
 -0.040623  0.070384  0.000000      2.000000
 -0.020311  0.058643  0.000000      2.000000

 TETIRR: Found     72 inequivalent tetrahedra from      150

 SYSTEM =  unknown system
 POSCAR =  POSCAR file written by OVITO Basic 3.7.8

 Startparameter for this run:
   NWRITE =      2    write-flag & timer
   PREC   = accura    normal or accurate (medium, high low for compatibility)
   ISTART =      0    job   : 0-new  1-cont  2-samecut
   ICHARG =      2    charge: 1-file 2-atom 10-const
   ISPIN  =      1    spin polarized calculation?
   LNONCOLLINEAR =      F non collinear calculations
   LSORBIT =      F    spin-orbit coupling
   INIWAV =      1    electr: 0-lowe 1-rand  2-diag
   LASPH  =      F    aspherical Exc in radial PAW
   METAGGA=      F    non-selfconsistent MetaGGA calc.

 Electronic Relaxation 1
   ENCUT  =  850.0 eV  62.47 Ry    7.90 a.u.  23.41 23.42118.86*2*pi/ulx,y,z
   ENINI  =  850.0     initial cutoff
   ENAUG  =  644.9 eV  augmentation charge cutoff
   NELM   =    150;   NELMIN=  2; NELMDL= -5     # of ELM steps
   EDIFF  = 0.1E-06   stopping-criterion for ELM
   LREAL  =      F    real-space projection
   NLSPLINE    = F    spline interpolate recip. space projectors
   LCOMPAT=      F    compatible to vasp.4.4
   GGA_COMPAT  = T    GGA compatible to vasp.4.4-vasp.4.6
   LMAXPAW     = -100 max onsite density
   LMAXMIX     =    2 max onsite mixed and CHGCAR
   VOSKOWN=      0    Vosko Wilk Nusair interpolation
   ROPT   =    0.00000
 Ionic relaxation
   EDIFFG = 0.1E-01   stopping-criterion for IOM
   NSW    =   1000    number of steps for IOM
   NBLOCK =      1;   KBLOCK =   1000    inner block; outer block
   IBRION =      1    ionic relax: 0-MD 1-quasi-New 2-CG
   NFREE  =      0    steps in history (QN), initial steepest desc. (CG)
   ISIF   =      3    stress and relaxation
   IWAVPR =     11    prediction:  0-non 1-charg 2-wave 3-comb
   ISYM   =      0    0-nonsym 1-usesym 2-fastsym
   LCORR  =      T    Harris-Foulkes like correction to forces

   POTIM  = 0.5000    time-step for ionic-motion
   TEIN   =    0.0    initial temperature
   TEBEG  =    0.0;   TEEND  =   0.0 temperature during run
   SMASS  =  -3.00    Nose mass-parameter (am)
   estimated Nose-frequenzy (Omega)   =  0.10E-29 period in steps =****** mass=  -0.222E-26a.u.
   SCALEE = 1.0000    scale energy and forces
   NPACO  =    256;   APACO  = 16.0  distance and # of slots for P.C.
   PSTRESS=    0.0 pullay stress

  Mass of Ions in am
   POMASS =  12.01
  Ionic Valenz
   ZVAL   =   4.00
  Atomic Wigner-Seitz radii
  virtual crystal weights
   VCA    =   1.00
   NELECT =     128.0000    total number of electrons
   NUPDOWN=      -1.0000    fix difference up-down

 DOS related values:
   EMIN   =  10.00;   EMAX   =-10.00  energy-range for DOS
   EFERMI =   0.00
   ISMEAR =    -5;   SIGMA  =   0.02  broadening in eV -4-tet -1-fermi 0-gaus

 Electronic relaxation 2 (details)
   IALGO  =     38    algorithm
   LDIAG  =      T    sub-space diagonalisation (order eigenvalues)
   LSUBROT=      F    optimize rotation matrix (better conditioning)
   TURBO    =      0    0=normal 1=particle mesh
   IRESTART =      0    0=no restart 2=restart with 2 vectors
   NREBOOT  =      0    no. of reboots
   NMIN     =      0    reboot dimension
   EREF     =   0.00    reference energy to select bands
   IMIX   =      4    mixing-type and parameters
     AMIX     =   0.40;   BMIX     =  1.00
     AMIX_MAG =   1.60;   BMIX_MAG =  1.00
     AMIN     =   0.10
     WC   =   100.;   INIMIX=   1;  MIXPRE=   1;  MAXMIX= -45

 Intra band minimization:
   WEIMIN = 0.0010     energy-eigenvalue tresh-hold
   EBREAK =  0.30E-09  absolut break condition
   DEPER  =   0.30     relativ break condition

   TIME   =   0.40     timestep for ELM

  volume/ion in A,a.u.               =     131.21       885.48
  Fermi-wavevector in a.u.,A,eV,Ry     =   0.511407  0.966420  3.558435  0.261538
  Thomas-Fermi vector in A             =   1.524886

 Write flags
   LWAVE        =      F    write WAVECAR
   LDOWNSAMPLE  =      F    k-point downsampling of WAVECAR
   LCHARG       =      F    write CHGCAR
   LVTOT        =      F    write LOCPOT, total local potential
   LVHAR        =      F    write LOCPOT, Hartree potential only
   LELF         =      F    write electronic localiz. function (ELF)
   LORBIT       =      0    0 simple, 1 ext, 2 COOP (PROOUT), +10 PAW based schemes

 Dipole corrections
   LMONO  =      F    monopole corrections only (constant potential shift)
   LDIPOL =      F    correct potential (dipole corrections)
   IDIPOL =      0    1-x, 2-y, 3-z, 4-all directions
   EPSILON=  1.0000000 bulk dielectric constant

 Exchange correlation treatment:
   GGA     =    --    GGA type
   VOSKOWN=      0    Vosko Wilk Nusair interpolation
   LHFCALC =     F    Hartree Fock is set to
   LHFONE  =     F    Hartree Fock one center treatment
   AEXX    =    0.0000 exact exchange contribution

 Linear response parameters
   LEPSILON=     F    determine dielectric tensor
   LRPA    =     F    only Hartree local field effects (RPA)
   LNABLA  =     F    use nabla operator in PAW spheres
   LVEL    =     F    velocity operator in full k-point grid
   LINTERFAST=   F  fast interpolation
   KINTER  =     0    interpolate to denser k-point grid
   CSHIFT  =0.1000    complex shift for real part using Kramers Kronig
   OMEGAMAX=  -1.0    maximum frequency
   DEG_THRESHOLD= 0.2000000E-02 threshold for treating states as degnerate
   RTIME   =   -0.100 relaxation time in fs
  (WPLASMAI=    0.000 imaginary part of plasma frequency in eV, 0.658/RTIME)
   DFIELD  = 0.0000000 0.0000000 0.0000000 field for delta impulse in time

 Orbital magnetization related:
   ORBITALMAG=     F  switch on orbital magnetization
   LCHIMAG   =     F  perturbation theory with respect to B field
   DQ        =  0.001000  dq finite difference perturbation B field
   LLRAUG    =     F  two centre corrections for induced B field

 quasi-Newton-method for relaxation of ions
 charge density and potential will be updated during run
 non-spin polarized calculation
 Variant of blocked Davidson
 Davidson routine will perform the subspace rotation
 perform sub-space diagonalisation
    after iterative eigenvector-optimisation
 modified Broyden-mixing scheme, WC =      100.0
 initial mixing is a Kerker type mixing with AMIX =  0.4000 and BMIX =      1.0000
 Hartree-type preconditioning will be used
 using additional bands           20
 reciprocal scheme for non local part
 use partial core corrections
 calculate Harris-corrections to forces
   (improved forces if not selfconsistent)
 use gradient corrections
 use of overlap-Matrix (Vanderbilt PP)
 Fermi weights with tetrahedron method with Bloechl corrections

  energy-cutoff  :      850.00
  volume of cell :     4198.88
      direct lattice vectors                 reciprocal lattice vectors
     9.846720000  0.000000000  0.000000000     0.101556660 -0.058706163  0.000000000
[...]
  free energy    TOTEN  =      -295.48582093 eV

  energy without entropy =     -295.48582093  energy(sigma->0) =     -295.48582093

 average (electrostatic) potential at core
  the test charge radii are     0.6991
  (the norm of the test charge is              1.0000)
       1 -59.0787       2 -59.0787       3 -59.0787       4 -59.0787       5 -59.0787
       6 -59.0787       7 -59.0787       8 -59.0787       9 -59.0787      10 -59.0787
      11 -59.0787      12 -59.0787      13 -59.0787      14 -59.0787      15 -59.0787
      16 -59.0787      17 -59.0787      18 -59.0787      19 -59.0787      20 -59.0787
      21 -59.0787      22 -59.0787      23 -59.0787      24 -59.0787      25 -59.0787
      26 -59.0787      27 -59.0787      28 -59.0787      29 -59.0787      30 -59.0787
      31 -59.0787      32 -59.0787

 E-fermi :  -4.0219     XC(G=0):  -0.8704     alpha+bet : -0.7630

[...]

 k-point    13 :      -0.2000    0.4000    0.0000
  band No.  band energies     occupation
      1     -22.7643      2.00000
      2     -22.7642      2.00000
      3     -22.4702      2.00000
      4     -21.5944      2.00000
      5     -21.0173      2.00000
      6     -21.0161      2.00000
      7     -20.1618      2.00000
      8     -20.1600      2.00000
      9     -19.8790      2.00000
     10     -19.8785      2.00000
     11     -19.3248      2.00000
     12     -19.3236      2.00000
     13     -17.8051      2.00000
     14     -17.8044      2.00000
     15     -17.3165      2.00000
     16     -16.5600      2.00000
     17     -16.3316      2.00000
     18     -16.3236      2.00000
     19     -16.3171      2.00000
     20     -16.0304      2.00000
     21     -14.8613      2.00000
     22     -14.8550      2.00000
     23     -14.3245      2.00000
     24     -14.3240      2.00000
     25     -14.0654      2.00000
     26     -13.6263      2.00000
     27     -13.6200      2.00000
     28     -12.4893      2.00000
     29     -11.8087      2.00000
     30     -11.8010      2.00000
     31     -11.5722      2.00000
     32     -11.5635      2.00000
     33     -10.7945      2.00000
     34     -10.7852      2.00000
     35     -10.7852      2.00000
     36     -10.5642      2.00000
     37     -10.5545      2.00000
     38     -10.4365      2.00000
     39     -10.2672      2.00000
     40     -10.2575      2.00000
     41     -10.2472      2.00000
     42     -10.2378      2.00000
     43      -9.8922      2.00000
     44      -9.8920      2.00000
     45      -9.5366      2.00000
     46      -9.4094      2.00000
     47      -8.9448      2.00000
     48      -8.7435      2.00000
     49      -8.7433      2.00000
     50      -8.1564      2.00000
     51      -8.1497      2.00000
     52      -8.0964      2.00000
     53      -7.7972      2.00000
     54      -7.7971      2.00000
     55      -7.5146      2.00000
     56      -7.5141      2.00000
     57      -7.5140      2.00000
     58      -7.5077      2.00000
     59      -6.9333      2.00000
     60      -6.9326      2.00000
[...]
     70      -0.5554      0.00000
     71       0.1300      0.00000
     72       0.1305      0.00000
     73       0.1840      0.00000
     74       0.1841      0.00000
     75       0.5858      0.00000
     76       0.6872      0.00000
     77       0.6934      0.00000
     78       0.9630      0.00000
     79       0.9631      0.00000
     80       1.1840      0.00000
     81       1.1841      0.00000
     82       1.2669      0.00000
     83       1.2670      0.00000
     84       1.3434      0.00000

 soft charge-density along one line, spin component           1
         0         1         2         3         4         5         6         7         8         9
 total charge-density along one line

------------------------ aborting loop because EDIFF is reached ----------------------------------------

  Hirshfeld charges:
            ion         q(e)
      1     C           0.000
      2     C          -0.000
      3     C           0.000
      4     C          -0.000
      5     C           0.000
      6     C          -0.000
      7     C           0.000
      8     C          -0.000
      9     C           0.000
     10     C          -0.000
     11     C           0.000
     12     C          -0.000
     13     C           0.000
     14     C          -0.000
     15     C           0.000
     16     C          -0.000
     17     C           0.000
     18     C          -0.000
     19     C           0.000
     20     C          -0.000
     21     C           0.000
     22     C          -0.000
     23     C           0.000
     24     C          -0.000
     25     C           0.000
     26     C          -0.000
     27     C           0.000
     28     C          -0.000
     29     C           0.000
     30     C          -0.000
     31     C           0.000
     32     C          -0.000

  Tkatchenko/Scheffler method for vdW energy calculation

  Parameters of vdW forcefield:
            C6ts              R0ts           ALPHAts        RELVOL
            (au)              (au)            (au)
   C          32.905          3.388         10.084          0.840
   C          32.905          3.388         10.084          0.840
   C          32.905          3.388         10.084          0.840
   C          32.905          3.388         10.084          0.840
   C          32.905          3.388         10.084          0.840
   C          32.905          3.388         10.084          0.840
   C          32.905          3.388         10.084          0.840
   C          32.905          3.388         10.084          0.840
   C          32.905          3.388         10.084          0.840
   C          32.905          3.388         10.084          0.840
   C          32.905          3.388         10.084          0.840
   C          32.905          3.388         10.084          0.840
   C          32.905          3.388         10.084          0.840
   C          32.905          3.388         10.084          0.840
   C          32.905          3.388         10.084          0.840
   C          32.905          3.388         10.084          0.840
   C          32.905          3.388         10.084          0.840
   C          32.905          3.388         10.084          0.840
   C          32.905          3.388         10.084          0.840
   C          32.905          3.388         10.084          0.840
   C          32.905          3.388         10.084          0.840
   C          32.905          3.388         10.084          0.840
   C          32.905          3.388         10.084          0.840
   C          32.905          3.388         10.084          0.840
   C          32.905          3.388         10.084          0.840
   C          32.905          3.388         10.084          0.840
   C          32.905          3.388         10.084          0.840
   C          32.905          3.388         10.084          0.840
   C          32.905          3.388         10.084          0.840
   C          32.905          3.388         10.084          0.840
   C          32.905          3.388         10.084          0.840
   C          32.905          3.388         10.084          0.840
  Edisp (eV):   -2.66015

  FORCE on cell =-STRESS in cart. coord.  units (eV):
  Direction    XX          YY          ZZ          XY          YZ          ZX
  Alpha Z    20.01306    20.01306    20.01306
  Ewald   69113.54693 69113.09197-73419.57969    -1.51822     0.00501     0.00635
  Hartree 68432.84076 68432.78489-68252.02856    -0.18550     0.00481     0.00609
  E(xc)    -475.67821  -475.68007  -493.51605    -0.00627     0.00000     0.00000
  Local  ************************140059.59471     1.40637    -0.00981    -0.01242
  n-local  -113.60490  -113.61678  -103.74890    -0.04086     0.00000     0.00000
  augment   -12.48604   -12.48534   -11.49833     0.00248     0.00002     0.00002
  Kinetic  1924.00208  1924.12982  2200.56381     0.43436    -0.00001    -0.00002
  Fock        0.00000     0.00000     0.00000     0.00000     0.00000     0.00000
  vdW        -3.17986    -3.17990     0.00824    -0.00014    -0.00000    -0.00000
  Total      -0.07331    -0.04767    -0.19171     0.09223     0.00002     0.00002
  in kB      -0.02794    -0.01817    -0.07308     0.03516     0.00001     0.00001

 VOLUME and BASIS-vectors are now :
  energy-cutoff  :      850.00
  volume of cell :     4203.17
      direct lattice vectors                 reciprocal lattice vectors
     9.854323835 -0.004993466  0.000000439     0.101448593 -0.058618088 -0.000000002
     4.929482092  8.531309007  0.000000519     0.000059379  0.117180997 -0.000000004
     0.000002224  0.000001756 49.981227789    -0.000000001 -0.000000001  0.020007512

  length of vectors
     9.854325101  9.853071961 49.981227789     0.117166110  0.117181012  0.020007512

 FORCES acting on ions
    electron-ion (+dipol)            ewald-force                    non-local-force                 convergence-correction
   -.223E-01 0.366E-02 -.113E-05   0.382E-01 -.606E-02 -.274E-06   0.885E-02 -.134E-02 0.157E-04   0.324E-06 -.262E-06 0.952E-08
   0.223E-01 -.366E-02 -.152E-05   -.382E-01 0.606E-02 0.565E-07   -.886E-02 0.133E-02 0.157E-04   -.445E-06 0.141E-06 0.955E-08
   -.223E-01 0.366E-02 -.133E-05   0.382E-01 -.606E-02 -.776E-07   0.885E-02 -.134E-02 0.157E-04   0.409E-06 0.202E-06 0.952E-08
   0.223E-01 -.366E-02 -.153E-05   -.382E-01 0.606E-02 0.750E-07   -.886E-02 0.133E-02 0.157E-04   -.160E-05 0.361E-06 0.955E-08
   -.223E-01 0.366E-02 -.925E-06   0.382E-01 -.606E-02 -.488E-06   0.885E-02 -.134E-02 0.157E-04   0.124E-06 0.369E-06 0.953E-08
   0.223E-01 -.366E-02 -.199E-05   -.382E-01 0.606E-02 0.536E-06   -.886E-02 0.133E-02 0.157E-04   0.117E-06 0.568E-06 0.956E-08
   -.223E-01 0.367E-02 -.192E-05   0.382E-01 -.607E-02 0.503E-06   0.885E-02 -.134E-02 0.157E-04   0.950E-06 -.302E-06 0.953E-08
   0.223E-01 -.366E-02 -.188E-05   -.382E-01 0.606E-02 0.419E-06   -.887E-02 0.133E-02 0.157E-04   -.107E-05 -.382E-06 0.956E-08
   -.223E-01 0.366E-02 -.127E-05   0.382E-01 -.606E-02 -.137E-06   0.885E-02 -.134E-02 0.157E-04   0.775E-06 -.313E-06 0.952E-08
   0.223E-01 -.366E-02 -.172E-05   -.382E-01 0.606E-02 0.262E-06   -.886E-02 0.133E-02 0.157E-04   -.121E-05 -.103E-05 0.955E-08
   -.223E-01 0.366E-02 -.812E-06   0.382E-01 -.606E-02 -.599E-06   0.885E-02 -.134E-02 0.157E-04   0.539E-07 -.148E-06 0.949E-08
   0.223E-01 -.366E-02 -.137E-05   -.382E-01 0.606E-02 -.844E-07   -.886E-02 0.133E-02 0.157E-04   0.388E-06 0.143E-05 0.952E-08
   -.223E-01 0.366E-02 -.107E-05   0.382E-01 -.606E-02 -.346E-06   0.885E-02 -.134E-02 0.157E-04   0.140E-05 0.939E-06 0.955E-08
   0.223E-01 -.366E-02 -.174E-05   -.382E-01 0.606E-02 0.283E-06   -.886E-02 0.133E-02 0.157E-04   -.135E-05 -.371E-06 0.959E-08
   -.223E-01 0.366E-02 -.123E-05   0.382E-01 -.606E-02 -.181E-06   0.885E-02 -.134E-02 0.157E-04   0.208E-06 -.830E-06 0.953E-08
   0.223E-01 -.366E-02 -.137E-05   -.382E-01 0.606E-02 -.856E-07   -.886E-02 0.133E-02 0.157E-04   -.204E-06 0.283E-06 0.955E-08
   -.223E-01 0.366E-02 -.130E-05   0.382E-01 -.606E-02 -.109E-06   0.885E-02 -.134E-02 0.157E-04   0.279E-06 -.132E-05 0.951E-08
   0.223E-01 -.366E-02 -.201E-05   -.382E-01 0.606E-02 0.554E-06   -.886E-02 0.133E-02 0.157E-04   0.150E-07 -.384E-08 0.954E-08
   -.223E-01 0.366E-02 -.585E-06   0.382E-01 -.605E-02 -.830E-06   0.885E-02 -.134E-02 0.157E-04   0.183E-05 0.729E-06 0.953E-08
   0.223E-01 -.366E-02 -.139E-05   -.382E-01 0.606E-02 -.584E-07   -.886E-02 0.133E-02 0.157E-04   -.755E-06 0.144E-06 0.958E-08
   -.223E-01 0.366E-02 -.826E-06   0.382E-01 -.606E-02 -.588E-06   0.885E-02 -.134E-02 0.157E-04   -.212E-06 -.547E-06 0.953E-08
   0.223E-01 -.366E-02 -.173E-05   -.382E-01 0.606E-02 0.275E-06   -.886E-02 0.133E-02 0.157E-04   -.268E-06 0.282E-06 0.955E-08
   -.223E-01 0.366E-02 -.762E-06   0.382E-01 -.606E-02 -.651E-06   0.885E-02 -.134E-02 0.157E-04   0.133E-05 0.332E-06 0.954E-08
   0.223E-01 -.366E-02 -.146E-05   -.382E-01 0.606E-02 0.134E-08   -.886E-02 0.133E-02 0.157E-04   -.646E-06 -.521E-06 0.958E-08
   -.223E-01 0.366E-02 -.227E-05   0.382E-01 -.606E-02 0.857E-06   0.885E-02 -.134E-02 0.157E-04   0.112E-05 -.154E-06 0.952E-08
   0.223E-01 -.366E-02 -.160E-05   -.382E-01 0.606E-02 0.144E-06   -.886E-02 0.133E-02 0.157E-04   -.859E-06 0.122E-06 0.956E-08
   -.223E-01 0.366E-02 -.737E-06   0.382E-01 -.606E-02 -.677E-06   0.885E-02 -.134E-02 0.157E-04   0.207E-06 0.104E-06 0.954E-08
   0.223E-01 -.366E-02 -.188E-05   -.382E-01 0.606E-02 0.424E-06   -.886E-02 0.133E-02 0.157E-04   -.529E-06 0.295E-06 0.956E-08
   -.223E-01 0.366E-02 -.870E-06   0.382E-01 -.606E-02 -.547E-06   0.885E-02 -.134E-02 0.157E-04   0.121E-05 0.885E-07 0.954E-08
   0.223E-01 -.366E-02 -.156E-05   -.382E-01 0.606E-02 0.110E-06   -.886E-02 0.133E-02 0.157E-04   -.101E-05 0.450E-06 0.957E-08
   -.223E-01 0.367E-02 -.113E-05   0.382E-01 -.607E-02 -.283E-06   0.885E-02 -.134E-02 0.157E-04   0.208E-07 -.458E-06 0.954E-08
   0.223E-01 -.366E-02 -.297E-05   -.382E-01 0.606E-02 0.152E-05   -.886E-02 0.133E-02 0.157E-04   -.586E-06 -.195E-06 0.956E-08
   0.862E-05 0.762E-05 -.459E-04   -.861E-13 -.626E-15 0.993E-16   -.291E-03 -.230E-03 0.503E-03   -.303E-08 0.463E-08 0.305E-06

 POSITION                                       TOTAL-FORCE (eV/Angst)
     14.78245      8.52548     23.39122         0.024642     -0.003724      0.000000
      1.23113      0.70961     23.39121        -0.024640      0.003725     -0.000000
     11.08534      2.12699     23.39122         0.024640     -0.003724      0.000000
      2.46350      2.84244     23.39121        -0.024640      0.003724     -0.000000
     12.31771      4.25982     23.39122         0.024640     -0.003726      0.000000
      3.69587      4.97527     23.39121        -0.024640      0.003725     -0.000000
     13.55008      6.39265     23.39122         0.024641     -0.003726      0.000000
      4.92824      7.10809     23.39122        -0.024642      0.003725     -0.000000
      7.39171      8.52922     23.39122         0.024640     -0.003725     -0.000000
      3.69471      0.70836     23.39121        -0.024640      0.003725     -0.000000
      3.69459      2.13074     23.39121         0.024640     -0.003724      0.000000
      4.92708      2.84119     23.39121        -0.024640      0.003725     -0.000000
      4.92696      4.26357     23.39121         0.024640     -0.003725      0.000000
      6.15945      4.97402     23.39122        -0.024641      0.003725     -0.000000
      6.15933      6.39639     23.39122         0.024641     -0.003725      0.000000
      7.39182      7.10685     23.39122        -0.024640      0.003726     -0.000000
      9.85529      8.52797     23.39122         0.024639     -0.003725      0.000000
      6.15829      0.70712     23.39121        -0.024640      0.003724     -0.000000
      6.15817      2.12949     23.39121         0.024640     -0.003724      0.000000
      7.39066      2.83994     23.39122        -0.024641      0.003724     -0.000000
      7.39055      4.26232     23.39122         0.024640     -0.003725      0.000000
      8.62303      4.97277     23.39122        -0.024640      0.003725     -0.000000
      8.62292      6.39515     23.39122         0.024639     -0.003725      0.000000
      9.85540      7.10560     23.39122        -0.024639      0.003726     -0.000000
     12.31887      8.52672     23.39122         0.024640     -0.003724     -0.000000
      8.62187      0.70587     23.39122        -0.024641      0.003724      0.000000
      8.62176      2.12824     23.39122         0.024641     -0.003723      0.000000
      9.85424      2.83869     23.39122        -0.024640      0.003724     -0.000000
      9.85413      4.26107     23.39122         0.024640     -0.003725      0.000000
     11.08661      4.97152     23.39122        -0.024639      0.003726     -0.000000
     11.08650      6.39390     23.39122         0.024639     -0.003727      0.000000
     12.31898      7.10435     23.39122        -0.024640      0.003725     -0.000000
    total drift:                               -0.000282     -0.000223      0.000457

  FREE ENERGIE OF THE ION-ELECTRON SYSTEM (eV)
  free  energy   TOTEN  =      -298.14596764 eV

  energy  without entropy=     -298.14596764  energy(sigma->0) =     -298.14596764

 d Force = 0.1509892E-04[-0.312E-03, 0.343E-03]  d Energy = 0.4147921E-02-0.413E-02
 d Force = 0.1499261E-02[-0.485E-03, 0.348E-02]  d Ewald  =-0.2036891E+03 0.204E+03

 Quasi-Newton relaxation of ions (Broydens 2nd method)
  g(Force)  = 0.959E-03   g(Stress)= 0.926E-04

 retain information from N=  1 steps
 eigenvalues of (default step * inverse Hessian matrix)
  average eigenvalue of G=   0.3019
 eigenvalue spectrum of G is  0.3019

 reached required accuracy - stopping structural energy minimisation