 vasp.5.4.4.18Apr17-6-g9f103f2a35 (build Jan 12 2023 11:40:15) complex

 executed on             LinuxIFC date 2023.12.04  09:10:42

 INCAR:
 POTCAR:    PAW_PBE C 08Apr2002
 POTCAR:    PAW_PBE C 08Apr2002
   VRHFIN =C: s2p2

   TITEL  = PAW_PBE C 08Apr2002
   POMASS =   12.011; ZVAL   =    4.000    mass and valenz
   ENMAX  =  400.000; ENMIN  =  300.000 eV

  PAW_PBE C 08Apr2002                   :

 POSCAR: POSCAR file written by OVITO Basic 3.7.1
  positions in direct lattice
  velocities in cartesian coordinates
 exchange correlation table for  LEXCH =        8
   RHO(1)=    0.500       N(1)  =     2000
   RHO(2)=  100.500       N(2)  =     4000

 ion  position               nearest neighbor table
   1  0.000  0.000  0.457-   2 1.42  48 1.43  14 1.43
   2  0.083  0.083  0.456-   1 1.42  17 1.43   5 1.43
   3  0.000  0.000  0.383-   4 1.42  50 1.43  16 1.43
   4  0.083  0.083  0.384-   3 1.42  19 1.43   7 1.43
   5  0.999  0.251  0.455-   6 1.43   2 1.43  52 1.45
   6  0.083  0.333  0.456-   9 1.42  21 1.43   5 1.43
   7  0.999  0.251  0.385-   4 1.43   8 1.43  54 1.45
   8  0.083  0.333  0.384-  11 1.42  23 1.43   7 1.43
   9  0.000  0.499  0.457-   6 1.42  56 1.43  10 1.43
  10  0.084  0.583  0.456-  13 1.43   9 1.43  25 1.43
  11  0.000  0.499  0.383-   8 1.42  58 1.43  12 1.43
  12  0.084  0.583  0.384-  15 1.43  11 1.43  27 1.43
  13  1.000  0.750  0.457-  60 1.42  14 1.43  10 1.43
  14  0.084  0.833  0.456-  13 1.43   1 1.43  29 1.43
  15  1.000  0.750  0.383-  62 1.42  12 1.43  16 1.43
  16  0.084  0.833  0.384-  15 1.43   3 1.43  31 1.43
  17  0.251  0.999  0.455-   2 1.43  18 1.43  30 1.45
  18  0.333  0.083  0.456-  33 1.42  21 1.43  17 1.43
  19  0.251  0.999  0.385-   4 1.43  20 1.43  32 1.45
  20  0.333  0.083  0.384-  35 1.42  23 1.43  19 1.43
  21  0.251  0.251  0.455-   6 1.43  18 1.43  22 1.45
  22  0.334  0.334  0.450-  37 1.43  25 1.43  21 1.45
  23  0.251  0.251  0.385-   8 1.43  20 1.43  24 1.45
  24  0.334  0.334  0.390-  39 1.43  27 1.43  23 1.45
  25  0.246  0.501  0.448-  10 1.43  22 1.43  26 1.47
  26  0.292  0.604  0.434-  28 1.43  25 1.47  29 1.47
  27  0.246  0.501  0.392-  12 1.43  24 1.43  28 1.47
  28  0.292  0.604  0.406-  26 1.43  27 1.47  31 1.47
  29  0.246  0.753  0.448-  14 1.43  30 1.43  26 1.47
  30  0.334  0.832  0.450-  43 1.43  29 1.43  17 1.45
  31  0.246  0.753  0.392-  16 1.43  32 1.43  28 1.47
  32  0.334  0.832  0.390-  45 1.43  31 1.43  19 1.45
  33  0.499  0.000  0.457-  18 1.42  44 1.43  34 1.43
  34  0.583  0.084  0.456-  47 1.43  33 1.43  37 1.43
  35  0.499  0.000  0.383-  20 1.42  46 1.43  36 1.43
  36  0.583  0.084  0.384-  49 1.43  35 1.43  39 1.43
  37  0.501  0.245  0.448-  34 1.43  22 1.43  38 1.47
  38  0.604  0.292  0.434-  40 1.43  51 1.47  37 1.47
  39  0.501  0.245  0.392-  36 1.43  24 1.43  40 1.47
  40  0.604  0.292  0.406-  38 1.43  53 1.47  39 1.47
  41  0.604  0.604  0.434-  42 1.43  55 1.47  43 1.47
  42  0.604  0.604  0.406-  41 1.43  57 1.47  45 1.47
  43  0.501  0.753  0.448-  44 1.43  30 1.43  41 1.47
  44  0.583  0.833  0.456-  59 1.43  33 1.43  43 1.43
  45  0.501  0.753  0.392-  46 1.43  32 1.43  42 1.47
  46  0.583  0.833  0.384-  61 1.43  35 1.43  45 1.43
  47  0.750  1.000  0.457-  60 1.42  34 1.43  48 1.43
  48  0.833  0.084  0.456-  47 1.43   1 1.43  51 1.43
  49  0.750  1.000  0.383-  62 1.42  36 1.43  50 1.43
  50  0.833  0.084  0.384-  49 1.43   3 1.43  53 1.43
  51  0.753  0.245  0.448-  48 1.43  52 1.43  38 1.47
  52  0.832  0.334  0.450-  55 1.43  51 1.43   5 1.45
  53  0.753  0.245  0.392-  50 1.43  54 1.43  40 1.47
  54  0.832  0.334  0.390-  57 1.43  53 1.43   7 1.45
  55  0.753  0.501  0.448-  56 1.43  52 1.43  41 1.47
  56  0.833  0.583  0.456-  59 1.43   9 1.43  55 1.43
  57  0.753  0.501  0.392-  58 1.43  54 1.43  42 1.47
  58  0.833  0.583  0.384-  61 1.43  11 1.43  57 1.43
  59  0.750  0.750  0.457-  60 1.42  44 1.43  56 1.43
  60  0.833  0.833  0.458-  13 1.42  47 1.42  59 1.42
  61  0.750  0.750  0.383-  62 1.42  46 1.43  58 1.43
  62  0.833  0.833  0.382-  15 1.42  49 1.42  61 1.42

  LATTYP: Found a simple monoclinic cell.
 ALAT       =    17.0497545948
 B/A-ratio  =     2.9325935292
 C/A-ratio  =     1.5274827517
 COS(beta)  =    -0.9819528776

  Lattice vectors:

 A1 = ( -14.7634400000,   8.5284800000,   0.0000000000)
 A2 = (   0.0000000000,   0.0000000000, -50.0000000000)
 A3 = (  19.6801600000, -17.0569600000,   0.0000000000)

Analysis of symmetry for initial positions (statically):
 Subroutine PRICEL returns:
 Original cell was already a primitive cell.

 Routine SETGRP: Setting up the symmetry group for a
 simple monoclinic supercell.

 Subroutine GETGRP returns: Found  1 space group operations
 (whereof  1 operations were pure point group operations)
 out of a pool of  4 trial point group operations.

The static configuration has the point symmetry C_1 .

Analysis of symmetry for dynamics (positions and initial velocities):
 Subroutine PRICEL returns:
 Original cell was already a primitive cell.

 Routine SETGRP: Setting up the symmetry group for a
 simple monoclinic supercell.

 Subroutine GETGRP returns: Found  1 space group operations
 (whereof  1 operations were pure point group operations)
 out of a pool of  4 trial point group operations.

The dynamic configuration has the point symmetry C_1 .

 Subroutine INISYM returns: Found  1 space group operations
 (whereof  1 operations are pure point group operations),
 and found     1 'primitive' translations

Automatic generation of k-mesh.
 generate k-points for:    5    5    1
Space group operators:
 irot       det(A)        alpha          n_x          n_y          n_z        tau_x        tau_y        tau_z
    1     1.000000     0.000000     1.000000     0.000000     0.000000     0.000000     0.000000     0.000000

 Subroutine IBZKPT returns following result:

 Found     13 irreducible k-points:

 Following reciprocal coordinates:
            Coordinates               Weight
  0.000000  0.000000  0.000000      1.000000
  0.200000  0.000000  0.000000      2.000000
  0.400000  0.000000  0.000000      2.000000
  0.000000  0.200000  0.000000      2.000000
  0.200000  0.200000  0.000000      2.000000
  0.400000  0.200000  0.000000      2.000000
 -0.400000  0.200000  0.000000      2.000000
 -0.200000  0.200000  0.000000      2.000000
  0.000000  0.400000  0.000000      2.000000
  0.200000  0.400000  0.000000      2.000000
  0.400000  0.400000  0.000000      2.000000
 -0.400000  0.400000  0.000000      2.000000
 -0.200000  0.400000  0.000000      2.000000

 Following cartesian coordinates:
            Coordinates               Weight
  0.000000  0.000000  0.000000      1.000000
  0.020311 -0.011741  0.000000      2.000000
  0.040623 -0.023482  0.000000      2.000000
  0.000000  0.023451  0.000000      2.000000
  0.020311  0.011710  0.000000      2.000000
  0.040623 -0.000032  0.000000      2.000000
 -0.040623  0.046933  0.000000      2.000000
 -0.020311  0.035192  0.000000      2.000000
  0.000000  0.046902  0.000000      2.000000
  0.020311  0.035160  0.000000      2.000000
  0.040623  0.023419  0.000000      2.000000
 -0.040623  0.070384  0.000000      2.000000
 -0.020311  0.058643  0.000000      2.000000

 TETIRR: Found     72 inequivalent tetrahedra from      150

 SYSTEM =  unknown system
 POSCAR =  POSCAR file written by OVITO Basic 3.7.1

 Startparameter for this run:
   NWRITE =      2    write-flag & timer
   PREC   = accura    normal or accurate (medium, high low for compatibility)
   ISTART =      0    job   : 0-new  1-cont  2-samecut
   ICHARG =      2    charge: 1-file 2-atom 10-const
   ISPIN  =      1    spin polarized calculation?
   LNONCOLLINEAR =      F non collinear calculations
   LSORBIT =      F    spin-orbit coupling
   INIWAV =      1    electr: 0-lowe 1-rand  2-diag
   LASPH  =      F    aspherical Exc in radial PAW
   METAGGA=      F    non-selfconsistent MetaGGA calc.

 Electronic Relaxation 1
   ENCUT  =  850.0 eV  62.47 Ry    7.90 a.u.  23.41 23.42118.86*2*pi/ulx,y,z
   ENINI  =  850.0     initial cutoff
   ENAUG  =  644.9 eV  augmentation charge cutoff
   NELM   =    150;   NELMIN=  2; NELMDL= -5     # of ELM steps
   EDIFF  = 0.1E-06   stopping-criterion for ELM
   LREAL  =      F    real-space projection
   NLSPLINE    = F    spline interpolate recip. space projectors
   LCOMPAT=      F    compatible to vasp.4.4
   GGA_COMPAT  = T    GGA compatible to vasp.4.4-vasp.4.6
   LMAXPAW     = -100 max onsite density
   LMAXMIX     =    2 max onsite mixed and CHGCAR
   VOSKOWN=      0    Vosko Wilk Nusair interpolation
   ROPT   =    0.00000
 Ionic relaxation
   EDIFFG = 0.1E-01   stopping-criterion for IOM
   NSW    =   1000    number of steps for IOM
   NBLOCK =      1;   KBLOCK =   1000    inner block; outer block
   IBRION =      1    ionic relax: 0-MD 1-quasi-New 2-CG
   NFREE  =      0    steps in history (QN), initial steepest desc. (CG)
   ISIF   =      3    stress and relaxation
   IWAVPR =     11    prediction:  0-non 1-charg 2-wave 3-comb
   ISYM   =      2    0-nonsym 1-usesym 2-fastsym
   LCORR  =      T    Harris-Foulkes like correction to forces

   POTIM  = 0.5000    time-step for ionic-motion
   TEIN   =    0.0    initial temperature
   TEBEG  =    0.0;   TEEND  =   0.0 temperature during run
   SMASS  =  -3.00    Nose mass-parameter (am)
   estimated Nose-frequenzy (Omega)   =  0.10E-29 period in steps =****** mass=  -0.222E-26a.u.
   SCALEE = 1.0000    scale energy and forces
   NPACO  =    256;   APACO  = 16.0  distance and # of slots for P.C.
   PSTRESS=    0.0 pullay stress

  Mass of Ions in am
   POMASS =  12.01
  Ionic Valenz
   ZVAL   =   4.00
  Atomic Wigner-Seitz radii
  virtual crystal weights
   VCA    =   1.00
   NELECT =     248.0000    total number of electrons
   NUPDOWN=      -1.0000    fix difference up-down

 DOS related values:
   EMIN   =  10.00;   EMAX   =-10.00  energy-range for DOS
   EFERMI =   0.00
   ISMEAR =    -5;   SIGMA  =   0.20  broadening in eV -4-tet -1-fermi 0-gaus

 Electronic relaxation 2 (details)
   IALGO  =     38    algorithm
   LDIAG  =      T    sub-space diagonalisation (order eigenvalues)
   LSUBROT=      F    optimize rotation matrix (better conditioning)
   TURBO    =      0    0=normal 1=particle mesh
   IRESTART =      0    0=no restart 2=restart with 2 vectors
   NREBOOT  =      0    no. of reboots
   NMIN     =      0    reboot dimension
   EREF     =   0.00    reference energy to select bands
   IMIX   =      4    mixing-type and parameters
     AMIX     =   0.40;   BMIX     =  1.00
     AMIX_MAG =   1.60;   BMIX_MAG =  1.00
     AMIN     =   0.10
     WC   =   100.;   INIMIX=   1;  MIXPRE=   1;  MAXMIX= -45

 Intra band minimization:
   WEIMIN = 0.0010     energy-eigenvalue tresh-hold
   EBREAK =  0.16E-09  absolut break condition
   DEPER  =   0.30     relativ break condition

   TIME   =   0.40     timestep for ELM

  volume/ion in A,a.u.               =      67.72       457.02
  Fermi-wavevector in a.u.,A,eV,Ry     =   0.637550  1.204795  5.530362  0.406470
  Thomas-Fermi vector in A             =   1.702594

 Write flags
   LWAVE        =      F    write WAVECAR
   LDOWNSAMPLE  =      F    k-point downsampling of WAVECAR
[...]
   C          34.731          3.419         10.360          0.863
   C          34.826          3.420         10.374          0.864
   C          34.731          3.419         10.360          0.863
   C          34.826          3.420         10.374          0.864
   C          34.203          3.410         10.281          0.857
   C          34.826          3.420         10.374          0.864
   C          34.203          3.410         10.281          0.857
   C          34.060          3.408         10.259          0.855
   C          33.823          3.404         10.223          0.852
   C          34.060          3.408         10.259          0.855
   C          33.823          3.404         10.223          0.852
  Edisp (eV):   -7.02828

  FORCE on cell =-STRESS in cart. coord.  units (eV):
  Direction    XX          YY          ZZ          XY          YZ          ZX
  Alpha Z    76.07399    76.07399    76.07399
  Ewald  218764.89797218765.43136************     0.55645     0.45230    -0.03531
  Hartree218076.66200218076.82579************     0.34363     0.44379    -0.02754
  E(xc)    -922.77527  -922.77387  -948.58182     0.00141     0.00001    -0.00005
  Local  ************************440159.81461    -0.90057    -0.89566     0.06235
  n-local  -212.66743  -212.66726  -203.77932     0.00481    -0.00004     0.00004
  augment   -23.69408   -23.69461   -22.05577     0.00018    -0.00000    -0.00000
  Kinetic  3756.83368  3756.78882  4195.90710    -0.06024     0.00012     0.00095
  Fock        0.00000     0.00000     0.00000     0.00000     0.00000     0.00000
  vdW        -7.50876    -7.50867    -4.12487    -0.00011    -0.00000    -0.00000
  Total      -0.10488    -0.08398    -0.35784    -0.05443     0.00052     0.00044
  in kB      -0.04048    -0.03241    -0.13812    -0.02101     0.00020     0.00017

 VOLUME and BASIS-vectors are now :
  energy-cutoff  :      850.00
  volume of cell :     4150.85
      direct lattice vectors                 reciprocal lattice vectors
     9.795472477 -0.003335275 -0.000000532     0.102067896 -0.058984534  0.000000066
     4.901452904  8.481562067  0.000008392     0.000040137  0.117879615 -0.000000121
    -0.000002667  0.000051244 49.951752334     0.000000001 -0.000000020  0.020019318

  length of vectors
     9.795473045  9.795975483 49.951752334     0.117885668  0.117879622  0.020019318

 FORCES acting on ions
    electron-ion (+dipol)            ewald-force                    non-local-force                 convergence-correction
   0.238E+00 0.159E+00 -.547E+03   -.142E+00 -.106E+00 0.547E+03   -.921E-01 -.536E-01 -.379E+00   0.879E-06 0.484E-06 0.494E-05
   -.193E+01 -.115E+01 -.515E+03   0.201E+01 0.119E+01 0.514E+03   -.721E-01 -.420E-01 0.574E+00   0.924E-07 -.172E-06 0.448E-05
   0.223E+00 0.149E+00 0.547E+03   -.127E+00 -.949E-01 -.547E+03   -.919E-01 -.537E-01 0.378E+00   0.958E-06 0.506E-06 -.343E-05
   -.193E+01 -.115E+01 0.515E+03   0.200E+01 0.119E+01 -.514E+03   -.728E-01 -.422E-01 -.575E+00   -.784E-07 -.208E-06 -.311E-05
   0.112E+02 -.646E+01 -.513E+03   -.113E+02 0.650E+01 0.514E+03   0.579E-01 -.317E-01 -.478E+00   0.691E-06 -.277E-06 0.416E-05
   0.464E-01 0.231E+01 -.515E+03   -.493E-01 -.240E+01 0.514E+03   0.867E-03 0.802E-01 0.575E+00   0.174E-06 -.171E-06 0.463E-05
   0.112E+02 -.645E+01 0.513E+03   -.112E+02 0.649E+01 -.514E+03   0.587E-01 -.326E-01 0.478E+00   -.243E-06 0.230E-06 -.266E-05
   0.464E-01 0.230E+01 0.515E+03   -.491E-01 -.239E+01 -.514E+03   0.786E-03 0.815E-01 -.576E+00   0.658E-07 -.409E-07 -.324E-05
   -.270E-01 -.328E+00 -.546E+03   0.277E-01 0.228E+00 0.547E+03   -.750E-04 0.112E+00 -.378E+00   -.883E-07 -.128E-05 0.519E-05
   -.141E+02 0.791E+01 -.536E+03   0.141E+02 -.765E+01 0.537E+03   0.177E-02 -.266E+00 -.519E+00   0.136E-05 0.361E-06 0.485E-05
   -.272E-01 -.305E+00 0.546E+03   0.282E-01 0.203E+00 -.547E+03   0.124E-03 0.111E+00 0.377E+00   -.127E-06 -.134E-05 -.365E-05
   -.141E+02 0.791E+01 0.536E+03   0.141E+02 -.765E+01 -.537E+03   0.281E-02 -.266E+00 0.519E+00   0.115E-05 -.549E-06 -.342E-05
   -.517E+01 0.295E+01 -.532E+03   0.500E+01 -.285E+01 0.532E+03   0.161E+00 -.919E-01 0.537E+00   0.112E-05 -.650E-06 0.549E-05
   -.139E+02 0.832E+01 -.536E+03   0.137E+02 -.844E+01 0.537E+03   0.228E+00 0.128E+00 -.519E+00   0.432E-06 -.102E-05 0.468E-05
   -.517E+01 0.295E+01 0.532E+03   0.500E+01 -.285E+01 -.532E+03   0.160E+00 -.919E-01 -.537E+00   0.129E-05 -.662E-06 -.388E-05
   -.139E+02 0.832E+01 0.536E+03   0.137E+02 -.844E+01 -.537E+03   0.229E+00 0.127E+00 0.519E+00   0.113E-05 -.369E-06 -.328E-05
   0.210E-01 0.129E+02 -.513E+03   -.185E-01 -.130E+02 0.513E+03   0.270E-02 0.638E-01 -.477E+00   -.147E-06 0.709E-06 0.424E-05
   0.203E+01 -.115E+01 -.515E+03   -.211E+01 0.119E+01 0.514E+03   0.706E-01 -.406E-01 0.576E+00   -.439E-06 0.252E-06 0.472E-05
   0.252E-01 0.129E+02 0.513E+03   -.233E-01 -.130E+02 -.513E+03   0.223E-02 0.648E-01 0.477E+00   -.189E-06 -.324E-06 -.273E-05
   0.202E+01 -.114E+01 0.515E+03   -.210E+01 0.119E+01 -.514E+03   0.723E-01 -.414E-01 -.577E+00   -.370E-06 0.161E-06 -.332E-05
   -.112E+02 -.646E+01 -.513E+03   0.112E+02 0.650E+01 0.513E+03   -.531E-01 -.315E-01 -.477E+00   -.851E-06 -.221E-06 0.438E-05
   -.266E+02 -.154E+02 -.440E+03   0.265E+02 0.153E+02 0.440E+03   0.112E+00 0.638E-01 0.833E+00   -.103E-06 0.105E-06 0.397E-05
   -.111E+02 -.645E+01 0.513E+03   0.112E+02 0.649E+01 -.513E+03   -.541E-01 -.317E-01 0.477E+00   0.240E-09 0.277E-06 -.285E-05
   -.266E+02 -.154E+02 0.440E+03   0.265E+02 0.153E+02 -.440E+03   0.113E+00 0.641E-01 -.832E+00   -.466E-06 -.969E-07 -.256E-05
   -.531E+02 0.110E+02 -.441E+03   0.533E+02 -.115E+02 0.441E+03   -.233E+00 0.529E+00 -.311E+00   -.445E-06 0.477E-06 0.407E-05
   -.794E+02 0.459E+02 -.240E+03   0.805E+02 -.465E+02 0.240E+03   -.103E+01 0.597E+00 -.202E+00   -.534E-06 0.293E-06 0.405E-05
   -.531E+02 0.110E+02 0.441E+03   0.533E+02 -.115E+02 -.441E+03   -.234E+00 0.528E+00 0.311E+00   -.109E-05 -.655E-06 -.246E-05
   -.794E+02 0.459E+02 0.240E+03   0.805E+02 -.465E+02 -.240E+03   -.103E+01 0.597E+00 0.202E+00   -.525E-06 0.305E-06 -.613E-06
   -.360E+02 0.405E+02 -.441E+03   0.366E+02 -.404E+02 0.441E+03   -.573E+00 -.600E-01 -.310E+00   -.625E-06 0.442E-06 0.394E-05
   0.754E-01 0.308E+02 -.440E+03   -.762E-01 -.306E+02 0.440E+03   0.502E-03 -.129E+00 0.832E+00   -.214E-06 0.122E-06 0.385E-05
   -.360E+02 0.405E+02 0.441E+03   0.366E+02 -.404E+02 -.441E+03   -.574E+00 -.592E-01 0.310E+00   0.222E-07 0.163E-05 -.237E-05
   0.735E-01 0.308E+02 0.440E+03   -.739E-01 -.306E+02 -.440E+03   0.711E-03 -.130E+00 -.831E+00   -.241E-06 0.574E-06 -.246E-05
   -.271E+00 0.146E+00 -.546E+03   0.182E+00 -.950E-01 0.547E+03   0.956E-01 -.556E-01 -.377E+00   -.122E-05 0.615E-06 0.536E-05
   -.267E+00 -.162E+02 -.536E+03   0.486E+00 0.160E+02 0.536E+03   -.228E+00 0.136E+00 -.518E+00   0.934E-06 0.123E-05 0.499E-05
   -.246E+00 0.132E+00 0.546E+03   0.154E+00 -.796E-01 -.547E+03   0.945E-01 -.550E-01 0.377E+00   -.124E-05 0.583E-06 -.380E-05
   -.267E+00 -.162E+02 0.536E+03   0.486E+00 0.160E+02 -.537E+03   -.227E+00 0.136E+00 0.518E+00   0.484E-07 0.149E-05 -.355E-05
   -.170E+02 -.515E+02 -.441E+03   0.167E+02 0.519E+02 0.441E+03   0.341E+00 -.465E+00 -.312E+00   0.199E-06 -.374E-06 0.415E-05
   -.121E+00 -.917E+02 -.240E+03   0.122E+00 0.930E+02 0.240E+03   -.138E-02 -.119E+01 -.201E+00   -.307E-07 -.358E-06 0.412E-05
   -.170E+02 -.515E+02 0.441E+03   0.167E+02 0.519E+02 -.441E+03   0.341E+00 -.465E+00 0.312E+00   -.113E-05 -.360E-06 -.254E-05
   -.124E+00 -.917E+02 0.240E+03   0.125E+00 0.930E+02 -.240E+03   -.113E-02 -.119E+01 0.201E+00   -.154E-07 -.340E-06 -.649E-06
   0.795E+02 0.459E+02 -.240E+03   -.805E+02 -.465E+02 0.240E+03   0.103E+01 0.597E+00 -.202E+00   0.141E-06 0.776E-07 0.428E-05
   0.795E+02 0.459E+02 0.240E+03   -.805E+02 -.465E+02 -.240E+03   0.103E+01 0.597E+00 0.202E+00   0.141E-06 0.776E-07 -.810E-06
   0.361E+02 0.405E+02 -.441E+03   -.367E+02 -.404E+02 0.441E+03   0.573E+00 -.630E-01 -.313E+00   0.301E-06 0.213E-06 0.420E-05
   0.138E+02 0.831E+01 -.536E+03   -.136E+02 -.843E+01 0.536E+03   -.230E+00 0.130E+00 -.518E+00   -.894E-06 -.113E-05 0.501E-05
   0.361E+02 0.404E+02 0.441E+03   -.367E+02 -.404E+02 -.441E+03   0.573E+00 -.622E-01 0.313E+00   -.379E-06 0.140E-05 -.261E-05
   0.139E+02 0.831E+01 0.536E+03   -.136E+02 -.844E+01 -.536E+03   -.230E+00 0.129E+00 0.518E+00   -.156E-05 -.492E-06 -.358E-05
   -.449E-01 -.592E+01 -.532E+03   0.483E-01 0.572E+01 0.532E+03   0.196E-03 0.187E+00 0.539E+00   0.258E-06 0.121E-05 0.561E-05
   0.238E+00 -.162E+02 -.536E+03   -.461E+00 0.161E+02 0.537E+03   0.225E+00 0.135E+00 -.520E+00   -.385E-06 0.889E-06 0.477E-05
   -.406E-01 -.591E+01 0.532E+03   0.431E-01 0.572E+01 -.532E+03   -.233E-03 0.185E+00 -.539E+00   0.312E-06 0.134E-05 -.399E-05
   0.228E+00 -.162E+02 0.536E+03   -.450E+00 0.161E+02 -.537E+03   0.225E+00 0.136E+00 0.520E+00   0.534E-06 0.117E-05 -.336E-05
   0.170E+02 -.515E+02 -.441E+03   -.166E+02 0.519E+02 0.441E+03   -.340E+00 -.465E+00 -.313E+00   0.210E-06 -.681E-06 0.401E-05
   0.267E+02 -.154E+02 -.441E+03   -.266E+02 0.153E+02 0.440E+03   -.109E+00 0.629E-01 0.830E+00   -.211E-07 -.588E-07 0.378E-05
   0.170E+02 -.515E+02 0.441E+03   -.166E+02 0.519E+02 -.441E+03   -.340E+00 -.466E+00 0.312E+00   0.160E-05 -.693E-06 -.244E-05
   0.267E+02 -.154E+02 0.441E+03   -.266E+02 0.153E+02 -.440E+03   -.110E+00 0.636E-01 -.830E+00   0.424E-06 -.336E-06 -.241E-05
   0.531E+02 0.110E+02 -.441E+03   -.533E+02 -.115E+02 0.441E+03   0.232E+00 0.529E+00 -.314E+00   0.569E-06 0.129E-06 0.418E-05
   0.141E+02 0.789E+01 -.536E+03   -.141E+02 -.763E+01 0.537E+03   -.296E-02 -.265E+00 -.519E+00   -.111E-05 -.280E-06 0.495E-05
   0.531E+02 0.110E+02 0.441E+03   -.533E+02 -.115E+02 -.441E+03   0.233E+00 0.528E+00 0.314E+00   0.127E-05 -.106E-05 -.259E-05
   0.142E+02 0.789E+01 0.536E+03   -.141E+02 -.763E+01 -.537E+03   -.411E-02 -.265E+00 0.519E+00   -.908E-06 -.121E-05 -.352E-05
   0.513E+01 0.297E+01 -.532E+03   -.497E+01 -.287E+01 0.531E+03   -.167E+00 -.950E-01 0.540E+00   -.711E-06 -.746E-06 0.572E-05
   -.406E-01 -.119E-01 -.542E+03   0.437E-01 0.143E-01 0.542E+03   -.597E-03 0.670E-03 -.209E+00   0.402E-06 -.165E-06 0.540E-05
   0.513E+01 0.297E+01 0.532E+03   -.497E+01 -.287E+01 -.531E+03   -.166E+00 -.949E-01 -.540E+00   -.838E-06 -.798E-06 -.411E-05
   -.424E-01 -.170E-01 0.542E+03   0.458E-01 0.202E-01 -.542E+03   -.264E-03 0.122E-02 0.209E+00   0.413E-06 -.146E-06 -.385E-05
   -.340E-02 -.274E-03 0.926E-03   0.385E-12 0.956E-13 -.341E-12   0.311E-02 0.392E-04 -.127E-02   -.111E-06 0.921E-07 0.523E-04

 POSITION                                       TOTAL-FORCE (eV/Angst)
      0.00523      0.00278     22.85369         0.000881     -0.001421      0.000303
      1.22600      0.70713     22.79211         0.001444      0.002635      0.002639
      0.00526      0.00281     19.10590         0.002160     -0.000901     -0.000603
      1.22605      0.70716     19.16768         0.000181      0.002369     -0.003117
     11.00944      2.12209     22.74680        -0.002735      0.005507     -0.001667
      2.44888      2.82334     22.79175        -0.002086     -0.013696      0.002788
     11.00947      2.12213     19.21296        -0.000599      0.003227      0.000884
      2.44891      2.82333     19.16801        -0.001953     -0.010737     -0.003310
      2.44967      4.23248     22.85314         0.000630      0.013954      0.001232
      3.68181      4.94205     22.77443        -0.013939     -0.002799      0.006264
      2.44970      4.23253     19.10641         0.001078      0.010552     -0.001491
      3.68183      4.94206     19.18496        -0.011559     -0.002144     -0.005866
     13.47153      6.35631     22.83902        -0.001514      0.007079      0.006059
      4.90735      7.06263     22.77481        -0.011474      0.004595      0.005497
     13.47160      6.35634     19.12033        -0.003832      0.006623     -0.006195
      4.90737      7.06267     19.18462        -0.009274      0.003686     -0.005110
      7.34908      8.46828     22.74615         0.005283     -0.007837     -0.000544
      3.67002      0.70624     22.79106        -0.011254      0.004811      0.003813
      7.34913      8.46830     19.21361         0.004136     -0.005658     -0.000127
      3.67001      0.70628     19.16868        -0.007099      0.002784     -0.004366
      3.68302      2.12449     22.74588         0.010061      0.004785     -0.000680
      4.90537      2.82953     22.46052        -0.009816     -0.007657     -0.006048
      3.68306      2.12451     19.21386         0.007645      0.004105     -0.000083
      4.90538      2.82955     19.49895        -0.007049     -0.006535      0.006979
      4.86486      4.25203     22.37855         0.008484     -0.002596     -0.001472
      5.82859      5.11590     21.69604         0.015512     -0.010870     -0.051604
      4.86493      4.25206     19.58081         0.006399     -0.003370      0.000834
      5.82864      5.11590     20.26331         0.015911     -0.010596      0.052555
      6.09584      6.38200     22.37881         0.009233     -0.000926     -0.000502
      7.34863      7.05724     22.46084        -0.000323      0.009876     -0.007518
      6.09590      6.38199     19.58060         0.008165      0.000596      0.000004
      7.34867      7.05728     19.49866         0.000300      0.007321      0.008364
      4.89016      0.00125     22.85224         0.008941     -0.005779      0.002502
      6.12120      0.71240     22.77368        -0.005798     -0.010844      0.007736
      4.89023      0.00126     19.10727         0.004968     -0.003662     -0.002642
      6.12121      0.71241     19.18568        -0.003852     -0.008952     -0.007270
      6.11624      2.08198     22.37829        -0.000128      0.012358     -0.001147
      7.34660      2.48376     21.69593        -0.000087      0.019933     -0.049786
      6.11630      2.08203     19.58108        -0.002173      0.011291      0.000493
      7.34661      2.48379     20.26343         0.000601      0.020152      0.050631
      8.86726      5.11507     21.69589        -0.017462     -0.011826     -0.051583
      8.86729      5.11508     20.26347        -0.017628     -0.011792      0.052436
      8.60100      6.38153     22.37839        -0.011682     -0.003804     -0.000483
      9.79013      7.06119     22.77357         0.011133      0.008770      0.008354
      8.60104      6.38152     19.58101        -0.011535     -0.001953     -0.000068
      9.79017      7.06123     19.18582         0.010211      0.006747     -0.007928
     12.24693      8.47922     22.83851         0.003628     -0.004180      0.007113
      8.57039      0.71166     22.77472        -0.002363     -0.009775      0.005380
     12.24698      8.47929     19.12083         0.002199     -0.007163     -0.007261
      8.57042      0.71167     19.18470        -0.001900     -0.006912     -0.004873
      8.57625      2.08141     22.37911         0.002897      0.009445     -0.002059
      9.78771      2.82814     22.46159         0.011021     -0.008096     -0.008769
      8.57628      2.08148     19.58030         0.003400      0.007431      0.001461
      9.78776      2.82816     19.49793         0.008890     -0.005863      0.009666
      9.82993      4.25052     22.37896        -0.008505     -0.004661     -0.002334
     11.01374      4.93968     22.77422         0.013007      0.000555      0.006851
      9.82994      4.25056     19.58046        -0.006513     -0.005656      0.001617
     11.01381      4.93970     19.18518         0.010144      0.001108     -0.006405
     11.02092      6.35740     22.83816        -0.005541     -0.000491      0.006953
     12.24643      7.06428     22.90020         0.002502      0.003001      0.010896
     11.02095      6.35743     19.12116        -0.004536     -0.000515     -0.006889
     12.24647      7.06429     19.05912         0.003162      0.004374     -0.010505
    total drift:                               -0.000288     -0.000234     -0.000295

  FREE ENERGIE OF THE ION-ELECTRON SYSTEM (eV)
  free  energy   TOTEN  =      -565.20134895 eV

  energy  without entropy=     -565.20134895  energy(sigma->0) =     -565.20134895

 d Force = 0.2277328E-03[-0.222E-03, 0.677E-03]  d Energy = 0.2894880E-02-0.267E-02
 d Force = 0.2090972E+01[ 0.209E+01, 0.209E+01]  d Ewald  = 0.2504070E+03-0.248E+03

 Quasi-Newton relaxation of ions (Broydens 2nd method)
  g(Force)  = 0.121E-02   g(Stress)= 0.118E-03

 retain information from N=  3 steps
 eigenvalues of (default step * inverse Hessian matrix)
  average eigenvalue of G=   2.0042
 eigenvalue spectrum of G is  5.0157  0.4493  0.5474

 reached required accuracy - stopping structural energy minimisation