 vasp.5.4.4.18Apr17-6-g9f103f2a35 (build Jan 12 2023 11:40:15) complex

 executed on             LinuxIFC date 2024.01.13  00:37:07

 INCAR:
 POTCAR:    PAW_PBE C 08Apr2002
 POTCAR:    PAW_PBE C 08Apr2002
   VRHFIN =C: s2p2

   TITEL  = PAW_PBE C 08Apr2002
   POMASS =   12.011; ZVAL   =    4.000    mass and valenz
   ENMAX  =  400.000; ENMIN  =  300.000 eV

  PAW_PBE C 08Apr2002                   :

 POSCAR: POSCAR file written by OVITO Basic 3.7.8
  positions in direct lattice
  velocities in cartesian coordinates
 exchange correlation table for  LEXCH =        8
   RHO(1)=    0.500       N(1)  =     2000
   RHO(2)=  100.500       N(2)  =     4000

 ion  position               nearest neighbor table
   1  0.000  0.000  0.440-   2 1.41  25 1.43   8 1.43
   2  0.083  0.083  0.440-   1 1.41   9 1.42   3 1.42
   3  0.999  0.250  0.440-  27 1.40   4 1.42   2 1.42
   4  0.083  0.333  0.440-   5 1.41  11 1.42   3 1.42
   5  0.000  0.499  0.440-   4 1.41  29 1.43   6 1.43
   6  0.085  0.583  0.440-   7 1.41   5 1.43  13 1.44
   7  0.001  0.749  0.440-   6 1.41   8 1.42  31 1.42
   8  0.085  0.832  0.440-   7 1.42   1 1.43  15 1.45
   9  0.250  0.000  0.440-  16 1.40  10 1.42   2 1.42
  10  0.333  0.083  0.440-  17 1.41   9 1.42  11 1.42
  11  0.250  0.250  0.440-  12 1.40   4 1.42  10 1.42
  12  0.332  0.332  0.440-  11 1.40  19 1.41  13 1.41
  13  0.255  0.498  0.440-  14 1.39  12 1.41   6 1.44
  14  0.333  0.583  0.440-  13 1.39  15 1.39
  15  0.255  0.747  0.440-  14 1.39  16 1.41   8 1.45
  16  0.332  0.835  0.440-   9 1.40  22 1.41  15 1.41
  17  0.499  0.000  0.440-  10 1.41  23 1.42  18 1.42
  18  0.583  0.084  0.440-  24 1.41  17 1.42  19 1.44
  19  0.498  0.253  0.440-  20 1.38  12 1.41  18 1.44
  20  0.583  0.330  0.440-  19 1.38  26 1.39
  21  0.584  0.586  0.440-  22 1.38  28 1.39
  22  0.498  0.749  0.440-  21 1.38  16 1.41  23 1.44
  23  0.583  0.833  0.440-  30 1.41  17 1.42  22 1.44
  24  0.750  0.000  0.440-  18 1.41  25 1.42  31 1.42
  25  0.832  0.084  0.440-  24 1.42   1 1.43  26 1.45
  26  0.747  0.254  0.440-  20 1.39  27 1.41  25 1.45
  27  0.834  0.333  0.440-   3 1.40  26 1.41  28 1.41
  28  0.747  0.499  0.440-  21 1.39  27 1.41  29 1.45
  29  0.832  0.583  0.440-  30 1.41   5 1.43  28 1.45
  30  0.750  0.750  0.440-  23 1.41  29 1.41  31 1.42
  31  0.834  0.833  0.440-   7 1.42  24 1.42  30 1.42

IMPORTANT INFORMATION: All symmetrisations will be switched off!
NOSYMM: (Re-)initialisation of all symmetry stuff for point group C_1.

Automatic generation of k-mesh.
 generate k-points for:    5    5    1
Space group operators:
 irot       det(A)        alpha          n_x          n_y          n_z        tau_x        tau_y        tau_z
    1     1.000000     0.000001     1.000000     0.000000     0.000000     0.000000     0.000000     0.000000

 Subroutine IBZKPT returns following result:

 Found     13 irreducible k-points:

 Following reciprocal coordinates:
            Coordinates               Weight
  0.000000  0.000000  0.000000      1.000000
  0.200000 -0.000000 -0.000000      2.000000
  0.400000 -0.000000 -0.000000      2.000000
  0.000000  0.200000 -0.000000      2.000000
  0.200000  0.200000  0.000000      2.000000
  0.400000  0.200000  0.000000      2.000000
 -0.400000  0.200000 -0.000000      2.000000
 -0.200000  0.200000 -0.000000      2.000000
  0.000000  0.400000 -0.000000      2.000000
  0.200000  0.400000 -0.000000      2.000000
  0.400000  0.400000  0.000000      2.000000
 -0.400000  0.400000 -0.000000      2.000000
 -0.200000  0.400000 -0.000000      2.000000

 Following cartesian coordinates:
            Coordinates               Weight
  0.000000  0.000000  0.000000      1.000000
  0.020383 -0.011782 -0.000000      2.000000
  0.040766 -0.023564 -0.000000      2.000000
 -0.000017  0.023503 -0.000000      2.000000
  0.020366  0.011721 -0.000000      2.000000
  0.040749 -0.000061 -0.000000      2.000000
 -0.040783  0.047066 -0.000000      2.000000
 -0.020400  0.035284 -0.000000      2.000000
 -0.000034  0.047005 -0.000000      2.000000
  0.020349  0.035223 -0.000000      2.000000
  0.040732  0.023442 -0.000000      2.000000
 -0.040800  0.070569 -0.000000      2.000000
 -0.020417  0.058787 -0.000000      2.000000

 TETIRR: Found     72 inequivalent tetrahedra from      150

 SYSTEM =  unknown system
 POSCAR =  POSCAR file written by OVITO Basic 3.7.8

 Startparameter for this run:
   NWRITE =      2    write-flag & timer
   PREC   = accura    normal or accurate (medium, high low for compatibility)
   ISTART =      0    job   : 0-new  1-cont  2-samecut
   ICHARG =      2    charge: 1-file 2-atom 10-const
   ISPIN  =      2    spin polarized calculation?
   LNONCOLLINEAR =      F non collinear calculations
   LSORBIT =      F    spin-orbit coupling
   INIWAV =      1    electr: 0-lowe 1-rand  2-diag
   LASPH  =      F    aspherical Exc in radial PAW
   METAGGA=      F    non-selfconsistent MetaGGA calc.

 Electronic Relaxation 1
   ENCUT  =  850.0 eV  62.47 Ry    7.90 a.u.  23.34 23.38118.65*2*pi/ulx,y,z
   ENINI  =  850.0     initial cutoff
   ENAUG  =  644.9 eV  augmentation charge cutoff
   NELM   =    150;   NELMIN=  2; NELMDL= -5     # of ELM steps
   EDIFF  = 0.1E-06   stopping-criterion for ELM
   LREAL  =      F    real-space projection
   NLSPLINE    = F    spline interpolate recip. space projectors
   LCOMPAT=      F    compatible to vasp.4.4
   GGA_COMPAT  = T    GGA compatible to vasp.4.4-vasp.4.6
   LMAXPAW     = -100 max onsite density
   LMAXMIX     =    2 max onsite mixed and CHGCAR
   VOSKOWN=      0    Vosko Wilk Nusair interpolation
   ROPT   =    0.00000
 Ionic relaxation
   EDIFFG = 0.1E-05   stopping-criterion for IOM
   NSW    =      1    number of steps for IOM
   NBLOCK =      1;   KBLOCK =      1    inner block; outer block
   IBRION =     -1    ionic relax: 0-MD 1-quasi-New 2-CG
   NFREE  =      0    steps in history (QN), initial steepest desc. (CG)
   ISIF   =      2    stress and relaxation
   IWAVPR =     10    prediction:  0-non 1-charg 2-wave 3-comb
   ISYM   =      0    0-nonsym 1-usesym 2-fastsym
   LCORR  =      T    Harris-Foulkes like correction to forces

   POTIM  = 0.5000    time-step for ionic-motion
   TEIN   =    0.0    initial temperature
   TEBEG  =    0.0;   TEEND  =   0.0 temperature during run
   SMASS  =  -3.00    Nose mass-parameter (am)
   estimated Nose-frequenzy (Omega)   =  0.10E-29 period in steps =****** mass=  -0.220E-26a.u.
   SCALEE = 1.0000    scale energy and forces
   NPACO  =    256;   APACO  = 16.0  distance and # of slots for P.C.
   PSTRESS=    0.0 pullay stress

  Mass of Ions in am
   POMASS =  12.01
  Ionic Valenz
   ZVAL   =   4.00
  Atomic Wigner-Seitz radii
  virtual crystal weights
   VCA    =   1.00
   NELECT =     124.0000    total number of electrons
   NUPDOWN=      -1.0000    fix difference up-down

 DOS related values:
   EMIN   =  10.00;   EMAX   =-10.00  energy-range for DOS
   EFERMI =   0.00
   ISMEAR =    -5;   SIGMA  =   0.02  broadening in eV -4-tet -1-fermi 0-gaus

 Electronic relaxation 2 (details)
   IALGO  =     38    algorithm
   LDIAG  =      T    sub-space diagonalisation (order eigenvalues)
   LSUBROT=      F    optimize rotation matrix (better conditioning)
   TURBO    =      0    0=normal 1=particle mesh
   IRESTART =      0    0=no restart 2=restart with 2 vectors
   NREBOOT  =      0    no. of reboots
   NMIN     =      0    reboot dimension
   EREF     =   0.00    reference energy to select bands
   IMIX   =      4    mixing-type and parameters
     AMIX     =   0.40;   BMIX     =  1.00
     AMIX_MAG =   1.60;   BMIX_MAG =  1.00
     AMIN     =   0.10
     WC   =   100.;   INIMIX=   1;  MIXPRE=   1;  MAXMIX= -45

 Intra band minimization:
   WEIMIN = 0.0000     energy-eigenvalue tresh-hold
   EBREAK =  0.26E-09  absolut break condition
   DEPER  =   0.30     relativ break condition

   TIME   =   0.40     timestep for ELM

  volume/ion in A,a.u.               =     134.50       907.62
  Fermi-wavevector in a.u.,A,eV,Ry     =   0.507216  0.958499  3.500342  0.257268
  Thomas-Fermi vector in A             =   1.518624

 Write flags
   LWAVE        =      F    write WAVECAR
   LDOWNSAMPLE  =      F    k-point downsampling of WAVECAR
   LCHARG       =      F    write CHGCAR
   LVTOT        =      F    write LOCPOT, total local potential
   LVHAR        =      F    write LOCPOT, Hartree potential only
   LELF         =      F    write electronic localiz. function (ELF)
   LORBIT       =      0    0 simple, 1 ext, 2 COOP (PROOUT), +10 PAW based schemes

 Dipole corrections
   LMONO  =      F    monopole corrections only (constant potential shift)
   LDIPOL =      F    correct potential (dipole corrections)
   IDIPOL =      0    1-x, 2-y, 3-z, 4-all directions
   EPSILON=  1.0000000 bulk dielectric constant

 Exchange correlation treatment:
   GGA     =    --    GGA type
   VOSKOWN=      0    Vosko Wilk Nusair interpolation
   LHFCALC =     F    Hartree Fock is set to
   LHFONE  =     F    Hartree Fock one center treatment
   AEXX    =    0.0000 exact exchange contribution

 Linear response parameters
   LEPSILON=     F    determine dielectric tensor
   LRPA    =     F    only Hartree local field effects (RPA)
   LNABLA  =     F    use nabla operator in PAW spheres
   LVEL    =     F    velocity operator in full k-point grid
   LINTERFAST=   F  fast interpolation
   KINTER  =     0    interpolate to denser k-point grid
   CSHIFT  =0.1000    complex shift for real part using Kramers Kronig
   OMEGAMAX=  -1.0    maximum frequency
   DEG_THRESHOLD= 0.2000000E-02 threshold for treating states as degnerate
   RTIME   =   -0.100 relaxation time in fs
  (WPLASMAI=    0.000 imaginary part of plasma frequency in eV, 0.658/RTIME)
   DFIELD  = 0.0000000 0.0000000 0.0000000 field for delta impulse in time

 Orbital magnetization related:
   ORBITALMAG=     F  switch on orbital magnetization
   LCHIMAG   =     F  perturbation theory with respect to B field
   DQ        =  0.001000  dq finite difference perturbation B field
   LLRAUG    =     F  two centre corrections for induced B field

 Static calculation
 charge density and potential will be updated during run
 spin polarized calculation
 Variant of blocked Davidson
 Davidson routine will perform the subspace rotation
 perform sub-space diagonalisation
    after iterative eigenvector-optimisation
 modified Broyden-mixing scheme, WC =      100.0
 initial mixing is a Kerker type mixing with AMIX =  0.4000 and BMIX =      1.0000
 Hartree-type preconditioning will be used
 using additional bands           34
 reciprocal scheme for non local part
 use partial core corrections
 calculate Harris-corrections to forces
   (improved forces if not selfconsistent)
 use gradient corrections
 use of overlap-Matrix (Vanderbilt PP)
 Fermi weights with tetrahedron method with Bloechl corrections

  energy-cutoff  :      850.00
  volume of cell :     4169.35
      direct lattice vectors                 reciprocal lattice vectors
     9.816206797  0.007065829  0.000009519     0.101914748 -0.058908990 -0.000000011
     4.920842279  8.513240569  0.000017268    -0.000084587  0.117512977 -0.000000173
[...]
     48      -8.9494      1.00000
     49      -8.9329      1.00000
     50      -8.7092      1.00000
     51      -7.9579      1.00000
     52      -7.4325      1.00000
     53      -7.3802      1.00000
     54      -6.5662      1.00000
     55      -6.5568      1.00000
     56      -6.5318      1.00000
     57      -6.5258      1.00000
     58      -6.4717      1.00000
     59      -6.2794      1.00000
     60      -6.1458      1.00000
[...]
     82       1.5277      0.00000
     83       1.5756      0.00000
     84       1.5861      0.00000
     85       1.5907      0.00000
     86       1.6425      0.00000
     87       1.6463      0.00000
     88       1.8081      0.00000
     89       1.9529      0.00000
     90       2.1187      0.00000
     91       2.3954      0.00000
     92       2.3982      0.00000
     93       2.4025      0.00000
     94       2.4153      0.00000
     95       2.4207      0.00000
     96       2.4885      0.00000

[...]

 spin component 2

[...]

 k-point    13 :      -0.2000    0.4000   -0.0000
  band No.  band energies     occupation
      1     -22.9616      1.00000
      2     -22.8268      1.00000
      3     -22.4805      1.00000
      4     -21.6778      1.00000
      5     -21.2012      1.00000
      6     -20.9453      1.00000
      7     -20.3471      1.00000
      8     -20.1943      1.00000
      9     -20.0075      1.00000
     10     -19.7552      1.00000
     11     -19.4974      1.00000
     12     -18.8029      1.00000
     13     -17.9608      1.00000
     14     -17.6438      1.00000
     15     -17.2135      1.00000
     16     -16.6370      1.00000
     17     -16.4148      1.00000
     18     -16.3666      1.00000
     19     -16.1365      1.00000
     20     -15.3672      1.00000
     21     -15.0227      1.00000
     22     -14.6895      1.00000
     23     -14.3144      1.00000
     24     -14.0968      1.00000
     25     -13.7892      1.00000
     26     -13.6399      1.00000
     27     -12.5717      1.00000
     28     -12.4180      1.00000
     29     -11.9277      1.00000
     30     -11.6308      1.00000
     31     -11.4831      1.00000
     32     -11.1665      1.00000
     33     -10.9466      1.00000
     34     -10.7970      1.00000
     35     -10.7521      1.00000
     36     -10.6675      1.00000
     37     -10.5175      1.00000
     38     -10.4531      1.00000
     39     -10.4154      1.00000
     40     -10.2753      1.00000
     41     -10.0375      1.00000
     42      -9.9955      1.00000
     43      -9.5791      1.00000
     44      -9.4567      1.00000
     45      -9.1431      1.00000
     46      -8.8899      1.00000
     47      -8.8541      1.00000
     48      -8.6529      1.00000
     49      -8.4189      1.00000
     50      -8.2031      1.00000
     51      -7.9359      1.00000
     52      -7.8064      1.00000
     53      -7.7362      1.00000
     54      -7.6611      1.00000
     55      -7.3627      1.00000
     56      -7.0631      1.00000
     57      -7.0166      1.00000
     58      -6.4906      1.00000
     59      -5.7473      1.00000
     60      -5.4305      1.00000
[...]
     82       1.2648      0.00000
     83       1.3401      0.00000
     84       1.3428      0.00000
     85       1.3505      0.00000
     86       1.5301      0.00000
     87       1.5361      0.00000
     88       1.5983      0.00000
     89       1.6418      0.00000
     90       1.6554      0.00000
     91       1.6587      0.00000
     92       1.6866      0.00000
     93       1.7580      0.00000
     94       1.8120      0.00000
     95       1.9531      0.00000
     96       1.9567      0.00000

 soft charge-density along one line, spin component           1
         0         1         2         3         4         5         6         7         8         9
 total charge-density along one line

 soft charge-density along one line, spin component           2
         0         1         2         3         4         5         6         7         8         9
 total charge-density along one line

------------------------ aborting loop because EDIFF is reached ----------------------------------------

  Hirshfeld charges:
            ion         q(e)
      1     C           0.002
      2     C          -0.005
      3     C           0.002
      4     C          -0.005
      5     C           0.002
      6     C           0.011
      7     C          -0.002
      8     C           0.011
      9     C           0.002
     10     C          -0.003
     11     C           0.002
     12     C          -0.013
     13     C          -0.007
     14     C           0.022
     15     C          -0.007
     16     C          -0.013
     17     C           0.002
     18     C           0.010
     19     C          -0.011
     20     C           0.004
     21     C           0.003
     22     C          -0.011
     23     C           0.010
     24     C          -0.002
     25     C           0.010
     26     C          -0.006
     27     C          -0.011
     28     C          -0.007
     29     C           0.010
     30     C          -0.002
     31     C           0.002

  Atomic reference data used in the T-S method for vdW correction:
            C6at              R0at           ALPHAat      REFSTATE
            (au)              (au)            (au)
   C          46.600          3.590         12.000         0

  Tkatchenko/Scheffler method for vdW energy calculation

  Parameters of vdW forcefield:
            C6ts              R0ts           ALPHAts        RELVOL
            (au)              (au)            (au)
   C          32.875          3.388         10.079          0.840
   C          32.841          3.387         10.074          0.839
   C          32.864          3.387         10.077          0.840
   C          32.836          3.387         10.073          0.839
   C          32.871          3.388         10.078          0.840
   C          32.966          3.389         10.093          0.841
   C          32.891          3.388         10.082          0.840
   C          32.970          3.389         10.094          0.841
   C          32.850          3.387         10.075          0.840
   C          32.790          3.386         10.066          0.839
   C          32.848          3.387         10.075          0.840
   C          33.360          3.396         10.153          0.846
   C          33.856          3.404         10.228          0.852
   C          35.562          3.432         10.483          0.874
   C          33.854          3.404         10.228          0.852
   C          33.358          3.396         10.153          0.846
   C          32.815          3.387         10.070          0.839
   C          32.930          3.389         10.087          0.841
   C          33.830          3.404         10.224          0.852
   C          35.355          3.429         10.452          0.871
   C          35.331          3.429         10.449          0.871
   C          33.822          3.404         10.223          0.852
   C          32.929          3.389         10.087          0.841
   C          32.883          3.388         10.080          0.840
   C          32.971          3.389         10.094          0.841
   C          33.770          3.403         10.215          0.851
   C          33.309          3.395         10.145          0.845
   C          33.764          3.403         10.214          0.851
   C          32.967          3.389         10.093          0.841
   C          32.882          3.388         10.080          0.840
   C          32.802          3.386         10.068          0.839

  IVDW = 202
  VDW_RADIUS =    50.000 A
  VDW_SR =     0.830
  VDW_D =     6.000
  SCSRAD =   120.000 A
  LSCSGRAD = T
  LSCALER0 = T
  Edisp (eV):   -2.52726

  FORCE on cell =-STRESS in cart. coord.  units (eV):
  Direction    XX          YY          ZZ          XY          YZ          ZX
  Alpha Z    18.93415    18.93415    18.93415
  Ewald   65197.01767 65195.10680-69270.79588    -0.91457     0.18710     0.07233
  Hartree 64562.20984 64560.83992-64333.04845    -1.32084     0.18452     0.10108
  E(xc)    -459.05607  -459.07957  -476.19965    -0.02040     0.00001    -0.00015
  Local  ************************132031.07508     1.88093    -0.37011    -0.17192
  n-local  -103.63190  -104.12972  -101.27986    -0.47143     0.00077     0.00241
  augment   -11.93293   -11.92535   -10.78472     0.00558    -0.00001    -0.00004
  Kinetic  1846.49982  1849.40968  2141.90451     2.62046    -0.00205    -0.00391
  Fock        0.00000     0.00000     0.00000     0.00000     0.00000     0.00000
  vdW        -3.07168    -3.06974     0.00800     0.00219    -0.00000     0.00001
  Total      -0.16297     1.65964    -0.18681     1.78191     0.00024    -0.00019
  in kB      -0.06262     0.63776    -0.07178     0.68475     0.00009    -0.00007

 VOLUME and BASIS-vectors are now :
  energy-cutoff  :      850.00
  volume of cell :     4169.35
      direct lattice vectors                 reciprocal lattice vectors
     9.816206797  0.007065829  0.000009519     0.101914748 -0.058908990 -0.000000011
     4.920842279  8.513240569  0.000017268    -0.000084587  0.117512977 -0.000000173
     0.000047872  0.000073598 49.912578381    -0.000000019 -0.000000029  0.020035030

  length of vectors
     9.816209340  9.833104989 49.912578381     0.117715270  0.117513007  0.020035030

 FORCES acting on ions
    electron-ion (+dipol)            ewald-force                    non-local-force                 convergence-correction
   0.363E+01 0.268E+01 0.270E-02   -.344E+01 -.253E+01 -.276E-02   -.238E+00 -.178E+00 -.333E-04   -.874E-06 -.804E-07 0.688E-09
   0.267E+01 0.589E+00 0.959E-02   -.261E+01 -.533E+00 -.981E-02   -.367E-01 -.358E-01 0.334E-03   -.899E-06 -.198E-06 0.330E-09
   0.434E+01 -.232E+01 0.817E-02   -.428E+01 0.224E+01 -.851E-02   -.167E+00 0.721E-01 0.596E-03   -.146E-05 0.963E-06 0.565E-09
   0.786E+00 -.271E+01 -.311E-02   -.786E+00 0.268E+01 0.315E-02   0.222E-01 0.800E-01 0.236E-04   -.460E-06 0.101E-05 -.174E-08
   -.602E+00 -.431E+01 -.601E-02   0.571E+00 0.406E+01 0.608E-02   0.323E-01 0.287E+00 -.428E-03   -.680E-06 0.960E-06 -.302E-08
   -.111E+02 0.547E+01 -.791E-02   0.107E+02 -.520E+01 0.800E-02   0.495E+00 -.330E+00 -.246E-03   0.228E-06 0.513E-06 -.694E-08
   -.451E+01 0.246E+01 -.285E-02   0.444E+01 -.240E+01 0.259E-02   0.833E-01 -.372E-01 0.366E-03   0.109E-05 -.834E-06 -.651E-08
   -.104E+02 0.695E+01 -.743E-02   0.991E+01 -.672E+01 0.803E-02   0.535E+00 -.274E+00 -.549E-03   0.216E-06 -.626E-06 0.276E-08
   0.447E+00 0.434E+01 -.952E-02   -.520E+00 -.424E+01 0.955E-02   -.138E-01 -.182E+00 -.149E-03   0.537E-06 -.126E-05 0.577E-08
   -.149E+01 0.821E+00 -.115E-01   0.150E+01 -.801E+00 0.118E-01   0.576E-01 -.221E-01 -.366E-03   0.835E-06 -.694E-06 0.223E-08
   -.360E+01 -.240E+01 -.935E-02   0.348E+01 0.237E+01 0.961E-02   0.148E+00 0.775E-01 -.715E-03   0.877E-06 0.138E-07 -.184E-08
   -.180E+02 -.119E+02 0.396E-01   0.177E+02 0.116E+02 -.418E-01   0.204E+00 0.213E+00 0.311E-02   0.183E-05 -.294E-06 -.912E-08
   -.287E+02 -.213E+01 0.279E-01   0.281E+02 0.155E+01 -.278E-01   0.615E+00 0.668E+00 0.473E-03   0.519E-06 0.461E-06 -.287E-08
   -.987E+02 0.567E+02 0.541E-01   0.980E+02 -.564E+02 -.606E-01   0.102E+01 -.603E+00 0.579E-02   0.275E-05 -.148E-05 0.105E-07
   -.125E+02 0.260E+02 -.524E-02   0.127E+02 -.252E+02 0.573E-02   -.276E+00 -.881E+00 -.718E-03   0.147E-06 -.271E-07 0.121E-07
   0.138E+01 0.217E+02 -.675E-02   -.127E+01 -.213E+02 0.786E-02   -.723E-01 -.296E+00 -.175E-02   0.155E-05 -.172E-05 0.147E-07
   -.298E+01 0.162E+01 0.122E-01   0.286E+01 -.154E+01 -.124E-01   0.174E+00 -.104E+00 0.202E-03   0.107E-05 -.931E-06 0.137E-08
   -.161E+01 -.116E+02 -.130E-01   0.156E+01 0.113E+02 0.134E-01   -.556E-01 0.334E+00 -.101E-03   0.883E-06 0.108E-05 0.139E-07
   -.135E+02 -.235E+02 -.616E-01   0.130E+02 0.232E+02 0.619E-01   0.643E+00 -.680E-01 -.731E-03   0.390E-05 0.823E-06 -.851E-08
   -.318E+01 -.113E+03 -.391E-01   0.281E+01 0.115E+03 0.390E-01   -.175E+00 -.149E+01 -.136E-02   0.791E-06 0.261E-05 -.604E-07
   0.967E+02 0.591E+02 -.206E+00   -.983E+02 -.596E+02 0.222E+00   0.134E+01 0.961E+00 -.170E-01   -.217E-05 -.205E-05 0.775E-07
   0.140E+02 0.232E+02 0.792E-01   -.140E+02 -.226E+02 -.819E-01   0.377E+00 -.517E+00 0.486E-02   0.131E-05 -.488E-05 0.133E-07
   0.925E+01 0.716E+01 0.301E-01   -.904E+01 -.698E+01 -.313E-01   -.303E+00 -.120E+00 0.857E-03   -.121E-05 -.204E-05 -.156E-07
   -.109E+01 -.423E+01 -.183E-03   0.111E+01 0.421E+01 0.108E-03   0.378E-02 0.428E-01 0.705E-04   -.610E-06 0.189E-05 0.158E-08
   0.407E+00 -.127E+02 0.275E-01   -.454E+00 0.123E+02 -.277E-01   0.702E-01 0.355E+00 0.125E-03   -.905E-06 0.171E-05 -.454E-09
   0.139E+02 -.250E+02 0.892E-01   -.131E+02 0.247E+02 -.909E-01   -.896E+00 0.452E-01 0.337E-02   -.316E-05 0.200E-05 -.179E-07
   0.199E+02 -.114E+02 -.278E-01   -.196E+02 0.113E+02 0.306E-01   -.360E+00 0.223E+00 -.443E-02   -.209E-05 0.156E-05 0.484E-08
   0.284E+02 0.849E+00 0.439E-01   -.278E+02 -.143E+01 -.462E-01   -.473E+00 0.735E+00 0.399E-02   -.462E-05 0.301E-05 0.266E-07
   0.111E+02 0.593E+01 0.262E-01   -.108E+02 -.574E+01 -.269E-01   -.257E+00 -.228E+00 0.787E-03   -.245E-05 0.925E-07 -.944E-09
   0.302E+01 0.284E+01 -.123E-01   -.298E+01 -.284E+01 0.128E-01   -.307E-01 -.108E-01 -.862E-03   -.230E-05 -.869E-06 -.555E-08
   -.489E+00 0.294E+00 -.155E-01   0.454E+00 -.292E+00 0.158E-01   0.414E-01 -.315E-01 -.373E-03   -.720E-06 0.136E-06 -.549E-08
   -.251E+01 0.132E+01 0.493E-02   0.694E-14 -.355E-14 -.125E-14   0.251E+01 -.132E+01 -.481E-02   -.608E-05 0.837E-06 0.418E-07

 POSITION                                       TOTAL-FORCE (eV/Angst)
      0.00366      0.00039     21.96151        -0.047038     -0.029679     -0.000102
      1.22452      0.71096     21.96151         0.022349      0.023964      0.000116
     11.04222      2.13679     21.96153        -0.112115     -0.000475      0.000261
      2.45388      2.83772     21.96154         0.022040      0.048396      0.000061
      2.46084      4.25114     21.96155         0.001348      0.032840     -0.000363
      3.69959      4.96523     21.96155         0.049051     -0.059743     -0.000161
      3.69634      6.37999     21.96155         0.004912      0.022430      0.000104
      4.92435      7.08370     21.96155         0.067840     -0.041026      0.000046
      2.45205      0.00329     21.96155        -0.086653     -0.074182     -0.000119
      3.67898      0.71152     21.96156         0.061084      0.000987     -0.000078
      3.68018      2.12901     21.96155         0.026507      0.051118     -0.000460
      4.89561      2.83057     21.96147        -0.038622     -0.017073      0.000960
      4.95028      4.24210     21.96146        -0.026422      0.061288      0.000610
      6.14072      4.96660     21.96141         0.328065     -0.220422     -0.000726
      6.17575      6.36045     21.96154        -0.069194     -0.006558     -0.000234
      7.37113      7.11296     21.96156         0.029828      0.028386     -0.000649
      4.90255      0.00549     21.96152         0.047328     -0.028630      0.000052
      6.13816      0.71519     21.96158        -0.110236      0.049583      0.000304
      6.13555      2.15616     21.96167         0.156743     -0.354962     -0.000430
      7.35125      2.81365     21.96163        -0.544033     -0.043744     -0.001506
      8.61519      4.99551     21.96203        -0.199943      0.479626     -0.000755
      8.57602      6.37640     21.96146         0.361747      0.066681      0.002189
      9.82542      7.09413     21.96149        -0.081431      0.061297     -0.000304
      7.36142      0.00689     21.96154         0.029189      0.012236     -0.000009
      8.58321      0.72104     21.96147         0.025003      0.028968     -0.000110
      8.58197      2.16765     21.96138        -0.073361     -0.208392      0.001707
      9.82567      2.83879     21.96159        -0.021270      0.058179     -0.001621
      9.78826      4.25246     21.96153         0.149352      0.126522      0.001645
     11.04160      4.97307     21.96151         0.008503     -0.037192      0.000039
     11.05013      6.38789     21.96157         0.012611     -0.001004     -0.000339
     12.28215      7.09850     21.96159         0.006816     -0.029419     -0.000132
    total drift:                               -0.000060     -0.000150      0.000128

  FREE ENERGIE OF THE ION-ELECTRON SYSTEM (eV)
  free  energy   TOTEN  =      -280.83104978 eV

  energy  without entropy=     -280.83104978  energy(sigma->0) =     -280.83104978

 BZINTS: Fermi energy: -3.944203;124.000000 electrons
         Band energy:***********;  BLOECHL correction: -0.018732