 vasp.5.4.4.18Apr17-6-g9f103f2a35 (build Jan 12 2023 11:40:15) complex

 executed on             LinuxIFC date 2023.12.04  09:30:00

 INCAR:
 POTCAR:    PAW_PBE C 08Apr2002
 POTCAR:    PAW_PBE C 08Apr2002
   VRHFIN =C: s2p2

   TITEL  = PAW_PBE C 08Apr2002
   POMASS =   12.011; ZVAL   =    4.000    mass and valenz
   ENMAX  =  400.000; ENMIN  =  300.000 eV

  PAW_PBE C 08Apr2002                   :

 POSCAR: POSCAR file written by OVITO Basic 3.7.1
  positions in direct lattice
  velocities in cartesian coordinates
 exchange correlation table for  LEXCH =        8
   RHO(1)=    0.500       N(1)  =     2000
   RHO(2)=  100.500       N(2)  =     4000

 ion  position               nearest neighbor table
   1  0.995  0.995  0.385-   2 1.42  48 1.43  14 1.43
   2  0.078  0.078  0.386-   1 1.42  17 1.42   5 1.42
   3  0.089  0.089  0.454-  50 1.42  16 1.42   4 1.43
   4  0.173  0.173  0.454-  19 1.42   7 1.42   3 1.43
   5  0.994  0.245  0.386-   2 1.42  52 1.42   6 1.43
   6  0.079  0.328  0.387-   9 1.42  21 1.43   5 1.43
   7  0.090  0.339  0.454-   4 1.42  54 1.43   8 1.45
   8  0.175  0.423  0.451-  23 1.39  11 1.43   7 1.45
   9  0.995  0.494  0.387-   6 1.42  56 1.43  10 1.43
  10  0.079  0.578  0.388-  13 1.43  24 1.43   9 1.43
  11  0.088  0.591  0.451-  12 1.42  58 1.42   8 1.43
  12  0.169  0.676  0.447-  11 1.42  15 1.42  26 1.47
  13  0.994  0.745  0.387-  60 1.42  10 1.43  14 1.43
  14  0.078  0.828  0.387-  28 1.42  13 1.43   1 1.43
  15  0.089  0.839  0.453-  12 1.42  16 1.43  62 1.43
  16  0.172  0.923  0.453-   3 1.42  30 1.42  15 1.43
  17  0.244  0.995  0.386-   2 1.42  29 1.42  18 1.43
  18  0.328  0.079  0.387-  32 1.42  21 1.43  17 1.43
  19  0.339  0.090  0.454-   4 1.42  31 1.43  20 1.45
  20  0.423  0.175  0.451-  23 1.39  34 1.43  19 1.45
  21  0.246  0.246  0.388-   6 1.43  18 1.43  22 1.45
  22  0.329  0.329  0.394-  36 1.43  24 1.43  21 1.45
  23  0.339  0.338  0.450-  20 1.39   8 1.39
  24  0.242  0.497  0.395-  22 1.43  10 1.43  25 1.46
  25  0.308  0.592  0.405-  24 1.46  28 1.47  26 1.54
  26  0.325  0.609  0.435-  27 1.46  12 1.47  25 1.54
  27  0.420  0.674  0.445-  41 1.43  30 1.43  26 1.46
  28  0.241  0.748  0.393-  29 1.42  14 1.42  25 1.47
  29  0.325  0.829  0.389-  28 1.42  17 1.42  43 1.43
  30  0.339  0.838  0.452-  16 1.42  31 1.43  27 1.43
  31  0.422  0.922  0.454-  45 1.42  19 1.43  30 1.43
  32  0.494  0.995  0.386-  18 1.42  44 1.43  33 1.43
  33  0.578  0.079  0.388-  47 1.42  32 1.43  36 1.43
  34  0.591  0.088  0.451-  35 1.42  46 1.42  20 1.43
  35  0.676  0.169  0.447-  34 1.42  49 1.42  38 1.47
  36  0.497  0.242  0.395-  22 1.43  33 1.43  37 1.46
  37  0.592  0.307  0.405-  36 1.46  51 1.47  38 1.54
  38  0.609  0.325  0.435-  39 1.46  35 1.47  37 1.54
  39  0.674  0.420  0.445-  41 1.43  53 1.43  38 1.46
  40  0.578  0.578  0.390-  43 1.39  55 1.39
  41  0.588  0.588  0.446-  27 1.43  39 1.43  42 1.45
  42  0.671  0.671  0.452-  57 1.43  45 1.43  41 1.45
  43  0.493  0.741  0.389-  40 1.39  29 1.43  44 1.45
  44  0.577  0.827  0.386-  59 1.42  32 1.43  43 1.45
  45  0.589  0.838  0.453-  31 1.42  42 1.43  46 1.43
  46  0.672  0.922  0.454-  61 1.42  34 1.42  45 1.43
  47  0.745  0.994  0.387-  60 1.42  33 1.42  48 1.43
  48  0.828  0.078  0.387-  51 1.42  47 1.43   1 1.43
  49  0.839  0.089  0.453-  35 1.42  50 1.43  62 1.43
  50  0.923  0.172  0.453-   3 1.42  53 1.43  49 1.43
  51  0.748  0.241  0.393-  52 1.42  48 1.42  37 1.47
  52  0.829  0.325  0.389-  51 1.42   5 1.42  55 1.43
  53  0.838  0.339  0.452-  50 1.43  39 1.43  54 1.43
  54  0.922  0.422  0.453-  57 1.42   7 1.43  53 1.43
  55  0.741  0.493  0.389-  40 1.39  52 1.43  56 1.45
  56  0.827  0.577  0.386-  59 1.42   9 1.43  55 1.45
  57  0.838  0.588  0.453-  54 1.42  42 1.43  58 1.43
  58  0.922  0.672  0.454-  61 1.42  11 1.42  57 1.43
  59  0.743  0.743  0.386-  44 1.42  56 1.42  60 1.43
  60  0.828  0.828  0.386-  13 1.42  47 1.42  59 1.43
  61  0.839  0.839  0.454-  62 1.42  46 1.42  58 1.42
  62  0.922  0.922  0.455-  61 1.42  15 1.43  49 1.43

  LATTYP: Found a simple monoclinic cell.
 ALAT       =    17.0497545948
 B/A-ratio  =     2.9325935292
 C/A-ratio  =     1.5274827517
 COS(beta)  =    -0.9819528776

  Lattice vectors:

 A1 = ( -14.7634400000,   8.5284800000,   0.0000000000)
 A2 = (   0.0000000000,   0.0000000000, -50.0000000000)
 A3 = (  19.6801600000, -17.0569600000,   0.0000000000)

Analysis of symmetry for initial positions (statically):
 Subroutine PRICEL returns:
 Original cell was already a primitive cell.

 Routine SETGRP: Setting up the symmetry group for a
 simple monoclinic supercell.

 Subroutine GETGRP returns: Found  1 space group operations
 (whereof  1 operations were pure point group operations)
 out of a pool of  4 trial point group operations.

The static configuration has the point symmetry C_1 .

Analysis of symmetry for dynamics (positions and initial velocities):
 Subroutine PRICEL returns:
 Original cell was already a primitive cell.

 Routine SETGRP: Setting up the symmetry group for a
 simple monoclinic supercell.

 Subroutine GETGRP returns: Found  1 space group operations
 (whereof  1 operations were pure point group operations)
 out of a pool of  4 trial point group operations.

The dynamic configuration has the point symmetry C_1 .

 Subroutine INISYM returns: Found  1 space group operations
 (whereof  1 operations are pure point group operations),
 and found     1 'primitive' translations

Automatic generation of k-mesh.
 generate k-points for:    5    5    1
Space group operators:
 irot       det(A)        alpha          n_x          n_y          n_z        tau_x        tau_y        tau_z
    1     1.000000     0.000000     1.000000     0.000000     0.000000     0.000000     0.000000     0.000000

 Subroutine IBZKPT returns following result:

 Found     13 irreducible k-points:

 Following reciprocal coordinates:
            Coordinates               Weight
  0.000000  0.000000  0.000000      1.000000
  0.200000  0.000000  0.000000      2.000000
  0.400000  0.000000  0.000000      2.000000
  0.000000  0.200000  0.000000      2.000000
  0.200000  0.200000  0.000000      2.000000
  0.400000  0.200000  0.000000      2.000000
 -0.400000  0.200000  0.000000      2.000000
 -0.200000  0.200000  0.000000      2.000000
  0.000000  0.400000  0.000000      2.000000
  0.200000  0.400000  0.000000      2.000000
  0.400000  0.400000  0.000000      2.000000
 -0.400000  0.400000  0.000000      2.000000
 -0.200000  0.400000  0.000000      2.000000

 Following cartesian coordinates:
            Coordinates               Weight
  0.000000  0.000000  0.000000      1.000000
  0.020311 -0.011741  0.000000      2.000000
  0.040623 -0.023482  0.000000      2.000000
  0.000000  0.023451  0.000000      2.000000
  0.020311  0.011710  0.000000      2.000000
  0.040623 -0.000032  0.000000      2.000000
 -0.040623  0.046933  0.000000      2.000000
 -0.020311  0.035192  0.000000      2.000000
  0.000000  0.046902  0.000000      2.000000
  0.020311  0.035160  0.000000      2.000000
  0.040623  0.023419  0.000000      2.000000
 -0.040623  0.070384  0.000000      2.000000
 -0.020311  0.058643  0.000000      2.000000

 TETIRR: Found     72 inequivalent tetrahedra from      150

 SYSTEM =  unknown system
 POSCAR =  POSCAR file written by OVITO Basic 3.7.1

 Startparameter for this run:
   NWRITE =      2    write-flag & timer
   PREC   = accura    normal or accurate (medium, high low for compatibility)
   ISTART =      0    job   : 0-new  1-cont  2-samecut
   ICHARG =      2    charge: 1-file 2-atom 10-const
   ISPIN  =      1    spin polarized calculation?
   LNONCOLLINEAR =      F non collinear calculations
   LSORBIT =      F    spin-orbit coupling
   INIWAV =      1    electr: 0-lowe 1-rand  2-diag
   LASPH  =      F    aspherical Exc in radial PAW
   METAGGA=      F    non-selfconsistent MetaGGA calc.

 Electronic Relaxation 1
   ENCUT  =  850.0 eV  62.47 Ry    7.90 a.u.  23.41 23.42118.86*2*pi/ulx,y,z
   ENINI  =  850.0     initial cutoff
   ENAUG  =  644.9 eV  augmentation charge cutoff
   NELM   =    150;   NELMIN=  2; NELMDL= -5     # of ELM steps
   EDIFF  = 0.1E-06   stopping-criterion for ELM
   LREAL  =      F    real-space projection
   NLSPLINE    = F    spline interpolate recip. space projectors
   LCOMPAT=      F    compatible to vasp.4.4
   GGA_COMPAT  = T    GGA compatible to vasp.4.4-vasp.4.6
   LMAXPAW     = -100 max onsite density
   LMAXMIX     =    2 max onsite mixed and CHGCAR
   VOSKOWN=      0    Vosko Wilk Nusair interpolation
   ROPT   =    0.00000
 Ionic relaxation
   EDIFFG = 0.1E-01   stopping-criterion for IOM
   NSW    =   1000    number of steps for IOM
   NBLOCK =      1;   KBLOCK =   1000    inner block; outer block
   IBRION =      1    ionic relax: 0-MD 1-quasi-New 2-CG
   NFREE  =      0    steps in history (QN), initial steepest desc. (CG)
   ISIF   =      3    stress and relaxation
   IWAVPR =     11    prediction:  0-non 1-charg 2-wave 3-comb
   ISYM   =      2    0-nonsym 1-usesym 2-fastsym
   LCORR  =      T    Harris-Foulkes like correction to forces

   POTIM  = 0.5000    time-step for ionic-motion
   TEIN   =    0.0    initial temperature
   TEBEG  =    0.0;   TEEND  =   0.0 temperature during run
   SMASS  =  -3.00    Nose mass-parameter (am)
   estimated Nose-frequenzy (Omega)   =  0.10E-29 period in steps =****** mass=  -0.222E-26a.u.
   SCALEE = 1.0000    scale energy and forces
   NPACO  =    256;   APACO  = 16.0  distance and # of slots for P.C.
   PSTRESS=    0.0 pullay stress

  Mass of Ions in am
   POMASS =  12.01
  Ionic Valenz
   ZVAL   =   4.00
  Atomic Wigner-Seitz radii
  virtual crystal weights
   VCA    =   1.00
   NELECT =     248.0000    total number of electrons
   NUPDOWN=      -1.0000    fix difference up-down

 DOS related values:
   EMIN   =  10.00;   EMAX   =-10.00  energy-range for DOS
   EFERMI =   0.00
   ISMEAR =    -5;   SIGMA  =   0.02  broadening in eV -4-tet -1-fermi 0-gaus

 Electronic relaxation 2 (details)
   IALGO  =     38    algorithm
   LDIAG  =      T    sub-space diagonalisation (order eigenvalues)
   LSUBROT=      F    optimize rotation matrix (better conditioning)
   TURBO    =      0    0=normal 1=particle mesh
   IRESTART =      0    0=no restart 2=restart with 2 vectors
   NREBOOT  =      0    no. of reboots
   NMIN     =      0    reboot dimension
   EREF     =   0.00    reference energy to select bands
   IMIX   =      4    mixing-type and parameters
     AMIX     =   0.40;   BMIX     =  1.00
     AMIX_MAG =   1.60;   BMIX_MAG =  1.00
     AMIN     =   0.10
     WC   =   100.;   INIMIX=   1;  MIXPRE=   1;  MAXMIX= -45

 Intra band minimization:
   WEIMIN = 0.0010     energy-eigenvalue tresh-hold
   EBREAK =  0.16E-09  absolut break condition
   DEPER  =   0.30     relativ break condition

   TIME   =   0.40     timestep for ELM

  volume/ion in A,a.u.               =      67.72       457.02
  Fermi-wavevector in a.u.,A,eV,Ry     =   0.637550  1.204795  5.530362  0.406470
  Thomas-Fermi vector in A             =   1.702594

 Write flags
   LWAVE        =      F    write WAVECAR
   LDOWNSAMPLE  =      F    k-point downsampling of WAVECAR
[...]
   C          34.852          3.421         10.378          0.865
   C          34.611          3.417         10.342          0.862
   C          34.263          3.411         10.290          0.857
   C          35.257          3.427         10.438          0.870
   C          34.349          3.413         10.303          0.859
   C          34.195          3.410         10.279          0.857
   C          34.130          3.409         10.270          0.856
   C          34.224          3.410         10.284          0.857
   C          34.127          3.409         10.269          0.856
   C          34.132          3.409         10.270          0.856
   C          34.071          3.408         10.261          0.855
  Edisp (eV):   -7.29689

  FORCE on cell =-STRESS in cart. coord.  units (eV):
  Direction    XX          YY          ZZ          XY          YZ          ZX
  Alpha Z    76.34746    76.34746    76.34746
  Ewald  220561.45079220551.38935************     8.75624   904.11104  1525.21723
  Hartree219668.20451219652.31818************    13.03037   819.52339  1380.57290
  E(xc)    -921.18967  -921.14179  -949.56465    -0.04089     0.35131     0.60055
  Local  ************************444281.54007   -23.60049 -1717.77247 -2895.78046
  n-local  -211.38123  -210.62170  -196.15631    -0.65369    -0.76885    -1.32451
  augment   -23.59840   -23.62080   -21.83223     0.01774    -0.00618    -0.00813
  Kinetic  3738.46859  3734.98167  4219.54147     2.89962    -5.29249    -9.03547
  Fock        0.00000     0.00000     0.00000     0.00000     0.00000     0.00000
  vdW        -7.64514    -7.60672    -4.16167    -0.03207    -0.03403    -0.05859
  Total      -0.20991    -0.51445    -0.34548     0.37684     0.11173     0.18352
  in kB      -0.08131    -0.19928    -0.13383     0.14598     0.04328     0.07109

 VOLUME and BASIS-vectors are now :
  energy-cutoff  :      850.00
  volume of cell :     4135.99
      direct lattice vectors                 reciprocal lattice vectors
     9.777937446 -0.040258176  0.028975538     0.102031022 -0.058444566 -0.000201094
     4.860691242  8.485568734  0.029419213     0.000484688  0.117570229 -0.000210201
     0.148596923  0.088301621 49.731656900    -0.000059734 -0.000035498  0.020108158

  length of vectors
     9.778063254  9.779164666 49.731957294     0.117584596  0.117571416  0.020108278

 FORCES acting on ions
    electron-ion (+dipol)            ewald-force                    non-local-force                 convergence-correction
   -.113E+00 -.153E+00 0.539E+03   0.271E+00 0.248E+00 -.540E+03   -.166E+00 -.910E-01 0.521E+00   -.265E-06 -.687E-07 0.713E-06
   -.670E+01 -.397E+01 0.509E+03   0.673E+01 0.398E+01 -.509E+03   -.185E-01 -.160E-01 -.653E+00   -.108E-05 -.727E-06 0.946E-06
   -.284E+01 -.163E+01 -.512E+03   0.277E+01 0.160E+01 0.512E+03   -.586E-02 -.221E-02 -.183E+00   -.236E-07 0.101E-07 -.125E-05
   -.292E+01 -.169E+01 -.512E+03   0.312E+01 0.180E+01 0.511E+03   -.118E+00 -.724E-01 0.107E+00   0.107E-05 0.464E-06 -.141E-05
   -.248E+01 -.795E+01 0.510E+03   0.246E+01 0.792E+01 -.510E+03   0.266E-02 0.160E-01 0.285E+00   0.722E-06 0.351E-06 0.115E-05
   -.708E+01 -.112E+01 0.502E+03   0.718E+01 0.117E+01 -.502E+03   -.754E-01 -.144E-01 -.187E+00   0.390E-06 0.762E-06 0.111E-05
   -.652E+01 -.628E+01 -.509E+03   0.652E+01 0.616E+01 0.510E+03   0.270E-02 0.799E-01 -.101E+00   0.629E-06 -.235E-05 -.134E-05
   -.235E+02 -.325E+00 -.485E+03   0.238E+02 0.113E+00 0.484E+03   -.235E+00 0.191E+00 0.281E+00   -.125E-05 -.328E-06 -.134E-05
   -.180E+01 -.142E+01 0.508E+03   0.169E+01 0.143E+01 -.508E+03   0.925E-01 -.737E-01 0.791E-01   0.387E-06 -.364E-06 0.112E-05
   -.132E+02 0.106E+02 0.501E+03   0.134E+02 -.105E+02 -.502E+03   -.107E+00 -.229E-01 0.584E+00   0.307E-06 0.852E-06 0.958E-06
   -.911E+01 0.179E+02 -.475E+03   0.927E+01 -.182E+02 0.475E+03   -.195E+00 0.270E+00 -.111E+00   -.724E-06 -.158E-05 -.906E-06
   -.195E+02 0.334E+02 -.449E+03   0.194E+02 -.337E+02 0.450E+03   0.167E+00 0.308E+00 -.303E+00   0.361E-06 -.143E-05 -.764E-06
   -.878E+00 0.627E+01 0.501E+03   0.709E+00 -.630E+01 -.501E+03   0.124E+00 -.322E-01 -.547E+00   -.136E-05 -.359E-06 0.813E-06
   -.687E+01 0.647E+01 0.518E+03   0.663E+01 -.644E+01 -.519E+03   0.252E+00 -.260E-02 0.324E+00   -.283E-05 0.156E-05 0.239E-06
   -.215E+01 0.936E+01 -.518E+03   0.224E+01 -.914E+01 0.519E+03   -.126E+00 -.214E+00 -.327E+00   0.251E-07 0.334E-05 -.190E-06
   -.496E+01 0.394E+01 -.501E+03   0.507E+01 -.381E+01 0.500E+03   -.307E-01 -.130E+00 0.549E+00   0.101E-05 0.972E-06 -.807E-06
   -.804E+01 0.166E+01 0.510E+03   0.800E+01 -.164E+01 -.510E+03   0.132E-01 -.476E-02 0.286E+00   0.570E-06 0.522E-06 0.117E-05
   -.455E+01 -.567E+01 0.502E+03   0.465E+01 0.572E+01 -.502E+03   -.471E-01 -.631E-01 -.190E+00   0.972E-06 -.194E-06 0.113E-05
   -.856E+01 -.249E+01 -.510E+03   0.844E+01 0.256E+01 0.510E+03   0.701E-01 -.339E-01 -.103E+00   -.181E-05 0.176E-05 -.136E-05
   -.119E+02 -.202E+02 -.485E+03   0.119E+02 0.205E+02 0.485E+03   0.532E-01 -.303E+00 0.279E+00   -.884E-06 -.105E-05 -.136E-05
   -.131E+02 -.765E+01 0.491E+03   0.132E+02 0.770E+01 -.491E+03   -.133E+00 -.751E-01 0.329E+00   0.400E-06 0.296E-06 0.115E-05
   -.224E+02 -.129E+02 0.415E+03   0.225E+02 0.130E+02 -.414E+03   -.829E-01 -.539E-01 -.866E+00   0.164E-05 0.793E-06 0.115E-05
   -.979E+02 -.567E+02 -.483E+03   0.102E+03 0.592E+02 0.485E+03   -.434E+01 -.250E+01 -.208E+01   -.917E-06 -.464E-06 -.144E-05
   -.374E+02 0.137E+02 0.412E+03   0.375E+02 -.141E+02 -.412E+03   -.104E+00 0.364E+00 -.280E+00   -.192E-06 -.177E-05 0.746E-06
   -.670E+02 0.617E+02 0.265E+03   0.689E+02 -.633E+02 -.266E+03   -.190E+01 0.166E+01 0.794E+00   0.415E-06 -.232E-05 0.704E-06
   -.196E+02 0.887E+02 -.264E+03   0.201E+02 -.912E+02 0.265E+03   -.480E+00 0.248E+01 -.785E+00   0.170E-05 -.152E-05 -.574E-06
   0.670E+01 0.393E+02 -.412E+03   -.642E+01 -.395E+02 0.411E+03   -.265E+00 0.270E+00 0.285E+00   0.143E-05 -.832E-06 -.794E-06
   -.190E+02 0.337E+02 0.450E+03   0.193E+02 -.337E+02 -.450E+03   -.348E+00 0.134E-01 0.312E+00   0.974E-06 -.799E-06 0.731E-06
   -.109E+02 0.167E+02 0.476E+03   0.111E+02 -.170E+02 -.476E+03   -.133E+00 0.300E+00 0.115E+00   0.160E-05 -.195E-06 0.953E-06
   -.251E+01 0.168E+02 -.501E+03   0.236E+01 -.169E+02 0.502E+03   0.724E-01 0.818E-01 -.586E+00   -.965E-06 0.323E-06 -.926E-06
   0.207E+01 0.951E+00 -.508E+03   -.201E+01 -.854E+00 0.509E+03   0.177E-01 -.119E+00 -.840E-01   0.163E-06 -.304E-06 -.111E-05
   -.207E+01 -.953E+00 0.508E+03   0.201E+01 0.857E+00 -.509E+03   -.176E-01 0.120E+00 0.841E-01   -.156E-06 0.567E-06 0.115E-05
   0.252E+01 -.168E+02 0.501E+03   -.237E+01 0.169E+02 -.502E+03   -.727E-01 -.819E-01 0.586E+00   0.929E-06 -.202E-06 0.100E-05
   0.109E+02 -.167E+02 -.476E+03   -.111E+02 0.170E+02 0.476E+03   0.133E+00 -.300E+00 -.115E+00   -.171E-05 0.258E-06 -.965E-06
   0.190E+02 -.337E+02 -.450E+03   -.193E+02 0.337E+02 0.450E+03   0.347E+00 -.132E-01 -.312E+00   -.109E-05 0.814E-06 -.746E-06
   -.670E+01 -.393E+02 0.412E+03   0.642E+01 0.395E+02 -.412E+03   0.265E+00 -.270E+00 -.284E+00   -.158E-05 0.795E-06 0.819E-06
   0.196E+02 -.887E+02 0.264E+03   -.201E+02 0.912E+02 -.265E+03   0.480E+00 -.248E+01 0.785E+00   -.191E-05 0.144E-05 0.580E-06
   0.670E+02 -.617E+02 -.265E+03   -.689E+02 0.633E+02 0.266E+03   0.190E+01 -.166E+01 -.794E+00   -.582E-06 0.220E-05 -.699E-06
   0.374E+02 -.137E+02 -.412E+03   -.375E+02 0.141E+02 0.412E+03   0.104E+00 -.364E+00 0.280E+00   0.759E-07 0.167E-05 -.723E-06
   0.979E+02 0.567E+02 0.483E+03   -.102E+03 -.592E+02 -.485E+03   0.434E+01 0.250E+01 0.208E+01   0.961E-06 0.503E-06 0.142E-05
   0.224E+02 0.129E+02 -.415E+03   -.225E+02 -.130E+02 0.414E+03   0.830E-01 0.537E-01 0.866E+00   -.166E-05 -.814E-06 -.113E-05
   0.131E+02 0.765E+01 -.491E+03   -.132E+02 -.770E+01 0.491E+03   0.133E+00 0.753E-01 -.329E+00   -.369E-06 -.270E-06 -.108E-05
   0.119E+02 0.202E+02 0.485E+03   -.119E+02 -.205E+02 -.485E+03   -.533E-01 0.302E+00 -.279E+00   0.791E-06 0.894E-06 0.136E-05
   0.856E+01 0.249E+01 0.510E+03   -.844E+01 -.256E+01 -.510E+03   -.703E-01 0.339E-01 0.103E+00   0.191E-05 -.159E-05 0.136E-05
   0.455E+01 0.567E+01 -.502E+03   -.464E+01 -.572E+01 0.502E+03   0.473E-01 0.627E-01 0.190E+00   -.921E-06 0.353E-06 -.107E-05
   0.804E+01 -.166E+01 -.510E+03   -.800E+01 0.165E+01 0.510E+03   -.137E-01 0.515E-02 -.286E+00   -.534E-06 -.344E-06 -.116E-05
   0.496E+01 -.394E+01 0.501E+03   -.507E+01 0.381E+01 -.501E+03   0.313E-01 0.130E+00 -.549E+00   -.104E-05 -.871E-06 0.850E-06
   0.216E+01 -.936E+01 0.518E+03   -.225E+01 0.914E+01 -.519E+03   0.126E+00 0.214E+00 0.327E+00   -.685E-07 -.339E-05 0.212E-06
   0.688E+01 -.646E+01 -.518E+03   -.664E+01 0.644E+01 0.519E+03   -.252E+00 0.236E-02 -.324E+00   0.278E-05 -.158E-05 -.213E-06
   0.876E+00 -.627E+01 -.501E+03   -.707E+00 0.629E+01 0.501E+03   -.124E+00 0.323E-01 0.547E+00   0.143E-05 0.274E-06 -.770E-06
   0.195E+02 -.334E+02 0.449E+03   -.194E+02 0.337E+02 -.450E+03   -.167E+00 -.308E+00 0.304E+00   -.403E-06 0.132E-05 0.748E-06
   0.911E+01 -.179E+02 0.475E+03   -.926E+01 0.182E+02 -.475E+03   0.195E+00 -.269E+00 0.111E+00   0.725E-06 0.146E-05 0.893E-06
   0.132E+02 -.106E+02 -.501E+03   -.134E+02 0.105E+02 0.502E+03   0.107E+00 0.229E-01 -.584E+00   -.218E-06 -.939E-06 -.881E-06
   0.180E+01 0.142E+01 -.508E+03   -.168E+01 -.143E+01 0.508E+03   -.923E-01 0.735E-01 -.791E-01   -.157E-06 0.241E-06 -.107E-05
   0.235E+02 0.326E+00 0.484E+03   -.238E+02 -.114E+00 -.484E+03   0.235E+00 -.192E+00 -.281E+00   0.108E-05 0.321E-06 0.134E-05
   0.652E+01 0.628E+01 0.509E+03   -.652E+01 -.615E+01 -.510E+03   -.305E-02 -.795E-01 0.101E+00   -.432E-06 0.236E-05 0.133E-05
   0.708E+01 0.112E+01 -.502E+03   -.718E+01 -.117E+01 0.502E+03   0.753E-01 0.145E-01 0.187E+00   -.213E-06 -.804E-06 -.105E-05
   0.247E+01 0.796E+01 -.510E+03   -.245E+01 -.792E+01 0.510E+03   -.270E-02 -.162E-01 -.286E+00   -.550E-06 -.403E-06 -.113E-05
   0.291E+01 0.169E+01 0.512E+03   -.311E+01 -.180E+01 -.511E+03   0.119E+00 0.721E-01 -.107E+00   -.975E-06 -.424E-06 0.142E-05
   0.284E+01 0.163E+01 0.512E+03   -.278E+01 -.160E+01 -.512E+03   0.517E-02 0.228E-02 0.183E+00   0.128E-06 0.556E-07 0.127E-05
   0.670E+01 0.397E+01 -.509E+03   -.673E+01 -.398E+01 0.509E+03   0.188E-01 0.159E-01 0.653E+00   0.111E-05 0.734E-06 -.922E-06
   0.112E+00 0.153E+00 -.539E+03   -.270E+00 -.248E+00 0.540E+03   0.166E+00 0.912E-01 -.522E+00   0.251E-06 0.591E-07 -.687E-06
   -.492E-04 0.127E-03 -.460E-03   0.286E-13 -.116E-12 -.114E-11   -.534E-04 -.173E-03 0.473E-03   0.834E-07 0.456E-07 0.687E-06

 POSITION                                       TOTAL-FORCE (eV/Angst)
     14.62025      8.43587     19.21787        -0.009545      0.002731      0.010497
      1.20042      0.69419     19.20003         0.014212     -0.003161      0.001642
      1.37446      0.79395     22.58608        -0.070708     -0.033114     -0.013526
      2.60653      1.50468     22.60068         0.080292      0.036865     -0.009984
     10.97070      2.06896     19.25470        -0.013450     -0.015037     -0.002307
      2.42428      2.81617     19.24126         0.018426      0.034094     -0.005192
      2.60069      2.91879     22.57713        -0.014797     -0.047204     -0.002702
      3.85044      3.62723     22.46352         0.037186      0.015935     -0.003129
     12.18419      4.19003     19.26510        -0.023205     -0.063759     -0.001896
      3.64004      4.93349     19.33228         0.034993      0.068483      0.003729
      3.80095      5.05575     22.42792        -0.025122     -0.014020      0.008415
      5.00014      5.77084     22.26641         0.020105     -0.001051     -0.002900
     13.39167      6.31306     19.30437        -0.044816     -0.056764      0.008751
      4.83880      7.05859     19.28306         0.007452      0.021462      0.005419
      5.01184      7.15800     22.54447        -0.029966      0.013618     -0.003821
      6.23523      7.86604     22.55258         0.078261      0.000808     -0.009641
      7.28236      8.46461     19.25409        -0.028824      0.008917     -0.003286
      3.65005      0.69110     19.24074         0.046020     -0.012122     -0.005800
      3.82757      0.79096     22.57785        -0.057381      0.019799     -0.002590
      5.06629      1.51778     22.46479         0.037631      0.018218     -0.003410
      3.65894      2.11211     19.31371        -0.049438     -0.021349     -0.020583
      4.87735      2.81483     19.59208         0.051934      0.026096      0.000893
      5.05070      2.91363     22.41628        -0.013680     -0.002958      0.004903
      4.84797      4.24008     19.66579        -0.012917     -0.022445     -0.008906
      5.95537      5.04293     20.15907        -0.006256      0.000586     -0.009678
      6.19801      5.18488     21.66564         0.001315      0.004982      0.012475
      7.44660      5.74023     22.16056         0.028150     -0.005368      0.009285
      6.04583      6.37420     19.55927        -0.013092     -0.013354      0.001937
      7.26442      7.05522     19.39826         0.028915      0.003529     -0.006839
      7.45115      7.13239     22.49564        -0.082988      0.009078     -0.002781
      8.67739      7.84786     22.59286         0.073701     -0.018183      0.002007
      9.72576      8.45254     19.26470        -0.073515      0.019048     -0.001968
      6.09133      0.68245     19.33244         0.081941     -0.009312      0.002793
      6.27804      0.75963     22.42987        -0.027943     -0.004279      0.006846
      7.49665      1.44063     22.26880         0.012350      0.013563     -0.001987
      6.09587      2.07461     19.66749        -0.028070      0.005579     -0.009084
      7.34445      2.62996     20.16241        -0.001418     -0.004918     -0.012310
      7.58711      2.77190     21.66897         0.006308     -0.000569      0.009919
      8.69451      3.57475     22.16225         0.012808      0.022663      0.009054
      8.49176      4.90120     19.41182         0.013341      0.003572     -0.004900
      8.66512      5.00001     22.23599        -0.051813     -0.026431     -0.000751
      9.88353      5.70272     22.51444         0.049151      0.021955      0.020605
      8.47618      6.29706     19.36334        -0.037985     -0.018299      0.003398
      9.71491      7.02387     19.25031         0.056626     -0.019750      0.002534
      9.89241      7.12375     22.58744        -0.045367      0.011176      0.005716
     11.12081      7.83579     22.60353         0.027787     -0.007800      0.003061
     12.16792      8.43437     19.30491        -0.076748     -0.000652      0.009658
      8.53064      0.65683     19.28360         0.028909     -0.013527      0.003934
      8.70367      0.75625     22.54501        -0.007516     -0.022260     -0.005306
      9.92873      1.46152     22.55268         0.045985      0.056784     -0.008664
      8.54233      2.04400     19.56165        -0.019797      0.000623      0.002839
      9.74152      2.75908     19.40022         0.024617      0.015037     -0.008383
      9.90243      2.88134     22.49580        -0.035333     -0.068541     -0.003680
     11.13621      3.58455     22.59203         0.023923      0.063141      0.001908
      9.69202      4.18762     19.36462        -0.036555     -0.017057      0.003058
     10.94178      4.89603     19.25104         0.013972      0.048272      0.002605
     11.11818      4.99866     22.58693        -0.018265     -0.033774      0.005119
     12.34971      5.70562     22.60248         0.013665      0.014545      0.002106
     10.93593      6.31016     19.22748        -0.078722     -0.037520      0.009896
     12.16803      7.02088     19.24203         0.068971      0.033099      0.013454
     12.34205      7.12065     22.62817        -0.013473      0.002788     -0.001823
     13.56084      7.82428     22.66864         0.009759     -0.002464     -0.010626
    total drift:                               -0.000103     -0.000047      0.000014

  FREE ENERGIE OF THE ION-ELECTRON SYSTEM (eV)
  free  energy   TOTEN  =      -565.05565818 eV

  energy  without entropy=     -565.05565818  energy(sigma->0) =     -565.05565818

 d Force = 0.1612909E-02[-0.199E-02, 0.521E-02]  d Energy = 0.2974081E-02-0.136E-02
 d Force =-0.2326644E+00[-0.245E+00,-0.220E+00]  d Ewald  = 0.2004644E+03-0.201E+03

 Quasi-Newton relaxation of ions (Broydens 2nd method)
  g(Force)  = 0.740E-02   g(Stress)= 0.626E-03

 retain information from N=  3 steps
 eigenvalues of (default step * inverse Hessian matrix)
  average eigenvalue of G=   2.7352
 eigenvalue spectrum of G is  0.5317  4.9054  2.7686

 reached required accuracy - stopping structural energy minimisation