 vasp.5.4.4.18Apr17-6-g9f103f2a35 (build Jan 12 2023 11:40:15) complex

 executed on             LinuxIFC date 2023.12.04  11:08:20

 INCAR:
 POTCAR:    PAW_PBE C 08Apr2002
 POTCAR:    PAW_PBE C 08Apr2002
   VRHFIN =C: s2p2

   TITEL  = PAW_PBE C 08Apr2002
   POMASS =   12.011; ZVAL   =    4.000    mass and valenz
   ENMAX  =  400.000; ENMIN  =  300.000 eV

  PAW_PBE C 08Apr2002                   :

 POSCAR: POSCAR file written by OVITO Basic 3.7.8
  positions in direct lattice
  velocities in cartesian coordinates
 exchange correlation table for  LEXCH =        8
   RHO(1)=    0.500       N(1)  =     2000
   RHO(2)=  100.500       N(2)  =     4000

 ion  position               nearest neighbor table
   1  0.001  0.000  0.440-   2 1.40  25 1.43   8 1.43
   2  0.083  0.083  0.440-   1 1.40   9 1.42   3 1.42
   3  0.001  0.250  0.440-   4 1.42  27 1.42   2 1.42
   4  0.083  0.334  0.440-   5 1.41  11 1.42   3 1.42
   5  0.000  0.499  0.440-   4 1.41  29 1.42   6 1.43
   6  0.084  0.583  0.440-   7 1.42   5 1.43  13 1.45
   7  1.000  0.750  0.440-  31 1.42   6 1.42   8 1.43
   8  0.084  0.833  0.440-   1 1.43   7 1.43  15 1.45
   9  0.249  0.001  0.440-  10 1.42  16 1.42   2 1.42
  10  0.334  0.083  0.440-  17 1.41  11 1.42   9 1.42
  11  0.249  0.249  0.440-   4 1.42  10 1.42  12 1.43
  12  0.333  0.333  0.440-  19 1.41  13 1.41  11 1.43
  13  0.254  0.498  0.440-  14 1.40  12 1.41   6 1.45
  14  0.331  0.584  0.440-  13 1.40  15 1.40
  15  0.254  0.748  0.440-  14 1.40  16 1.41   8 1.45
  16  0.332  0.835  0.440-  15 1.41  22 1.41   9 1.42
  17  0.499  0.000  0.440-  10 1.41  23 1.42  18 1.43
  18  0.583  0.084  0.440-  24 1.42  17 1.43  19 1.45
  19  0.498  0.253  0.440-  20 1.39  12 1.41  18 1.45
  20  0.584  0.330  0.440-  19 1.39  26 1.40
  21  0.585  0.585  0.440-  28 1.39  22 1.39
  22  0.498  0.748  0.440-  21 1.39  16 1.41  23 1.44
  23  0.583  0.833  0.440-  17 1.42  30 1.43  22 1.44
  24  0.750  1.000  0.440-  31 1.42  18 1.42  25 1.43
  25  0.833  0.084  0.440-   1 1.43  24 1.43  26 1.45
  26  0.748  0.254  0.440-  20 1.40  27 1.41  25 1.45
  27  0.834  0.333  0.440-  26 1.41  28 1.42   3 1.42
  28  0.748  0.498  0.440-  21 1.39  27 1.42  29 1.44
  29  0.833  0.583  0.440-   5 1.42  30 1.43  28 1.44
  30  0.750  0.750  0.440-  31 1.42  23 1.43  29 1.43
  31  0.833  0.833  0.440-   7 1.42  24 1.42  30 1.42

IMPORTANT INFORMATION: All symmetrisations will be switched off!
NOSYMM: (Re-)initialisation of all symmetry stuff for point group C_1.

Automatic generation of k-mesh.
 generate k-points for:    5    5    1
Space group operators:
 irot       det(A)        alpha          n_x          n_y          n_z        tau_x        tau_y        tau_z
    1     1.000000     0.000000     1.000000     0.000000     0.000000     0.000000     0.000000     0.000000

 Subroutine IBZKPT returns following result:

 Found     13 irreducible k-points:

 Following reciprocal coordinates:
            Coordinates               Weight
  0.000000  0.000000  0.000000      1.000000
  0.200000  0.000000  0.000000      2.000000
  0.400000  0.000000  0.000000      2.000000
  0.000000  0.200000  0.000000      2.000000
  0.200000  0.200000  0.000000      2.000000
  0.400000  0.200000  0.000000      2.000000
 -0.400000  0.200000  0.000000      2.000000
 -0.200000  0.200000  0.000000      2.000000
  0.000000  0.400000  0.000000      2.000000
  0.200000  0.400000  0.000000      2.000000
  0.400000  0.400000  0.000000      2.000000
 -0.400000  0.400000  0.000000      2.000000
 -0.200000  0.400000  0.000000      2.000000

 Following cartesian coordinates:
            Coordinates               Weight
  0.000000  0.000000  0.000000      1.000000
  0.020311 -0.011741  0.000000      2.000000
  0.040623 -0.023482  0.000000      2.000000
  0.000000  0.023451  0.000000      2.000000
  0.020311  0.011710  0.000000      2.000000
  0.040623 -0.000032  0.000000      2.000000
 -0.040623  0.046933  0.000000      2.000000
 -0.020311  0.035192  0.000000      2.000000
  0.000000  0.046902  0.000000      2.000000
  0.020311  0.035160  0.000000      2.000000
  0.040623  0.023419  0.000000      2.000000
 -0.040623  0.070384  0.000000      2.000000
 -0.020311  0.058643  0.000000      2.000000

 TETIRR: Found     72 inequivalent tetrahedra from      150

 SYSTEM =  unknown system
 POSCAR =  POSCAR file written by OVITO Basic 3.7.8

 Startparameter for this run:
   NWRITE =      2    write-flag & timer
   PREC   = accura    normal or accurate (medium, high low for compatibility)
   ISTART =      0    job   : 0-new  1-cont  2-samecut
   ICHARG =      2    charge: 1-file 2-atom 10-const
   ISPIN  =      1    spin polarized calculation?
   LNONCOLLINEAR =      F non collinear calculations
   LSORBIT =      F    spin-orbit coupling
   INIWAV =      1    electr: 0-lowe 1-rand  2-diag
   LASPH  =      F    aspherical Exc in radial PAW
   METAGGA=      F    non-selfconsistent MetaGGA calc.

 Electronic Relaxation 1
   ENCUT  =  850.0 eV  62.47 Ry    7.90 a.u.  23.41 23.42118.86*2*pi/ulx,y,z
   ENINI  =  850.0     initial cutoff
   ENAUG  =  644.9 eV  augmentation charge cutoff
   NELM   =    150;   NELMIN=  2; NELMDL= -5     # of ELM steps
   EDIFF  = 0.1E-05   stopping-criterion for ELM
   LREAL  =      F    real-space projection
   NLSPLINE    = F    spline interpolate recip. space projectors
   LCOMPAT=      F    compatible to vasp.4.4
   GGA_COMPAT  = T    GGA compatible to vasp.4.4-vasp.4.6
   LMAXPAW     = -100 max onsite density
   LMAXMIX     =    2 max onsite mixed and CHGCAR
   VOSKOWN=      0    Vosko Wilk Nusair interpolation
   ROPT   =    0.00000
 Ionic relaxation
   EDIFFG = 0.1E-01   stopping-criterion for IOM
   NSW    =   1000    number of steps for IOM
   NBLOCK =      1;   KBLOCK =   1000    inner block; outer block
   IBRION =      1    ionic relax: 0-MD 1-quasi-New 2-CG
   NFREE  =      0    steps in history (QN), initial steepest desc. (CG)
   ISIF   =      3    stress and relaxation
   IWAVPR =     11    prediction:  0-non 1-charg 2-wave 3-comb
   ISYM   =      0    0-nonsym 1-usesym 2-fastsym
   LCORR  =      T    Harris-Foulkes like correction to forces

   POTIM  = 0.5000    time-step for ionic-motion
   TEIN   =    0.0    initial temperature
   TEBEG  =    0.0;   TEEND  =   0.0 temperature during run
   SMASS  =  -3.00    Nose mass-parameter (am)
   estimated Nose-frequenzy (Omega)   =  0.10E-29 period in steps =****** mass=  -0.222E-26a.u.
   SCALEE = 1.0000    scale energy and forces
   NPACO  =    256;   APACO  = 16.0  distance and # of slots for P.C.
   PSTRESS=    0.0 pullay stress

  Mass of Ions in am
   POMASS =  12.01
  Ionic Valenz
   ZVAL   =   4.00
  Atomic Wigner-Seitz radii
  virtual crystal weights
   VCA    =   1.00
   NELECT =     124.0000    total number of electrons
   NUPDOWN=      -1.0000    fix difference up-down

 DOS related values:
   EMIN   =  10.00;   EMAX   =-10.00  energy-range for DOS
   EFERMI =   0.00
   ISMEAR =    -5;   SIGMA  =   0.20  broadening in eV -4-tet -1-fermi 0-gaus

 Electronic relaxation 2 (details)
   IALGO  =     38    algorithm
   LDIAG  =      T    sub-space diagonalisation (order eigenvalues)
   LSUBROT=      F    optimize rotation matrix (better conditioning)
   TURBO    =      0    0=normal 1=particle mesh
   IRESTART =      0    0=no restart 2=restart with 2 vectors
   NREBOOT  =      0    no. of reboots
   NMIN     =      0    reboot dimension
   EREF     =   0.00    reference energy to select bands
   IMIX   =      4    mixing-type and parameters
     AMIX     =   0.40;   BMIX     =  1.00
     AMIX_MAG =   1.60;   BMIX_MAG =  1.00
     AMIN     =   0.10
     WC   =   100.;   INIMIX=   1;  MIXPRE=   1;  MAXMIX= -45

 Intra band minimization:
   WEIMIN = 0.0010     energy-eigenvalue tresh-hold
   EBREAK =  0.32E-08  absolut break condition
   DEPER  =   0.30     relativ break condition

   TIME   =   0.40     timestep for ELM

  volume/ion in A,a.u.               =     135.45       914.05
  Fermi-wavevector in a.u.,A,eV,Ry     =   0.506024  0.956246  3.483910  0.256060
  Thomas-Fermi vector in A             =   1.516839

 Write flags
   LWAVE        =      F    write WAVECAR
   LDOWNSAMPLE  =      F    k-point downsampling of WAVECAR
   LCHARG       =      F    write CHGCAR
   LVTOT        =      F    write LOCPOT, total local potential
   LVHAR        =      F    write LOCPOT, Hartree potential only
   LELF         =      F    write electronic localiz. function (ELF)
   LORBIT       =      0    0 simple, 1 ext, 2 COOP (PROOUT), +10 PAW based schemes

 Dipole corrections
   LMONO  =      F    monopole corrections only (constant potential shift)
   LDIPOL =      F    correct potential (dipole corrections)
   IDIPOL =      0    1-x, 2-y, 3-z, 4-all directions
   EPSILON=  1.0000000 bulk dielectric constant

 Exchange correlation treatment:
   GGA     =    --    GGA type
   VOSKOWN=      0    Vosko Wilk Nusair interpolation
   LHFCALC =     F    Hartree Fock is set to
   LHFONE  =     F    Hartree Fock one center treatment
   AEXX    =    0.0000 exact exchange contribution

 Linear response parameters
   LEPSILON=     F    determine dielectric tensor
   LRPA    =     F    only Hartree local field effects (RPA)
   LNABLA  =     F    use nabla operator in PAW spheres
   LVEL    =     F    velocity operator in full k-point grid
   LINTERFAST=   F  fast interpolation
   KINTER  =     0    interpolate to denser k-point grid
   CSHIFT  =0.1000    complex shift for real part using Kramers Kronig
   OMEGAMAX=  -1.0    maximum frequency
   DEG_THRESHOLD= 0.2000000E-02 threshold for treating states as degnerate
   RTIME   =   -0.100 relaxation time in fs
  (WPLASMAI=    0.000 imaginary part of plasma frequency in eV, 0.658/RTIME)
   DFIELD  = 0.0000000 0.0000000 0.0000000 field for delta impulse in time

 Orbital magnetization related:
   ORBITALMAG=     F  switch on orbital magnetization
   LCHIMAG   =     F  perturbation theory with respect to B field
   DQ        =  0.001000  dq finite difference perturbation B field
   LLRAUG    =     F  two centre corrections for induced B field

 quasi-Newton-method for relaxation of ions
 charge density and potential will be updated during run
 non-spin polarized calculation
 Variant of blocked Davidson
 Davidson routine will perform the subspace rotation
 perform sub-space diagonalisation
    after iterative eigenvector-optimisation
 modified Broyden-mixing scheme, WC =      100.0
 initial mixing is a Kerker type mixing with AMIX =  0.4000 and BMIX =      1.0000
 Hartree-type preconditioning will be used
 using additional bands           16
 reciprocal scheme for non local part
 use partial core corrections
 calculate Harris-corrections to forces
   (improved forces if not selfconsistent)
 use gradient corrections
 use of overlap-Matrix (Vanderbilt PP)
 Fermi weights with tetrahedron method with Bloechl corrections

  energy-cutoff  :      850.00
  volume of cell :     4198.88
      direct lattice vectors                 reciprocal lattice vectors
     9.846720000  0.000000000  0.000000000     0.101556660 -0.058706163  0.000000000
     4.930000000  8.528480000  0.000000000     0.000000000  0.117254188  0.000000000
[...]
  -exchange      EXHF   =         0.00000000
  -V(xc)+E(xc)   XCENC  =       425.20194323
  PAW double counting   =     12844.83783584   -12865.85826419
  entropy T*S    EENTRO =         0.00000000
  eigenvalues    EBANDS =     -1597.37188848
  atomic energy  EATOM  =      4561.79852166
  Solvation  Ediel_sol  =         0.00000000
  free energy    TOTEN  =      -278.24178878 eV

  energy without entropy =     -278.24178878  energy(sigma->0) =     -278.24178878

 average (electrostatic) potential at core
  the test charge radii are     0.6991
  (the norm of the test charge is              1.0000)
       1 -59.2922       2 -59.0741       3 -59.1657       4 -59.0785       5 -59.2917
       6 -59.4114       7 -59.2555       8 -59.4118       9 -59.1544      10 -59.0389
      11 -59.1542      12 -59.0810      13 -59.4688      14 -60.0195      15 -59.4738
      16 -59.0855      17 -59.2647      18 -59.3843      19 -59.4134      20 -59.8489
      21 -59.8347      22 -59.4126      23 -59.3819      24 -59.2487      25 -59.4140
      26 -59.4639      27 -59.0854      28 -59.4581      29 -59.4111      30 -59.2473
      31 -59.2137

 E-fermi :  -3.8553     XC(G=0):  -0.8794     alpha+bet : -0.7452

[...]

 k-point    13 :      -0.2000    0.4000    0.0000
  band No.  band energies     occupation
      1     -22.9765      2.00000
      2     -22.8392      2.00000
      3     -22.5256      2.00000
      4     -21.7115      2.00000
      5     -21.2345      2.00000
      6     -20.9740      2.00000
      7     -20.3779      2.00000
      8     -20.2065      2.00000
      9     -20.0500      2.00000
     10     -19.8016      2.00000
     11     -19.5124      2.00000
     12     -18.8699      2.00000
     13     -17.9778      2.00000
     14     -17.7088      2.00000
     15     -17.2436      2.00000
     16     -16.6656      2.00000
     17     -16.4499      2.00000
     18     -16.3906      2.00000
     19     -16.1764      2.00000
     20     -15.4130      2.00000
     21     -15.0472      2.00000
     22     -14.7257      2.00000
     23     -14.3408      2.00000
     24     -14.1223      2.00000
     25     -13.8437      2.00000
     26     -13.6947      2.00000
     27     -12.6426      2.00000
     28     -12.4511      2.00000
     29     -11.9663      2.00000
     30     -11.6446      2.00000
     31     -11.5125      2.00000
     32     -11.2235      2.00000
     33     -10.9529      2.00000
     34     -10.8053      2.00000
     35     -10.7848      2.00000
     36     -10.6940      2.00000
     37     -10.5402      2.00000
     38     -10.4921      2.00000
     39     -10.4471      2.00000
     40     -10.3119      2.00000
     41     -10.0639      2.00000
     42     -10.0306      2.00000
     43      -9.6283      2.00000
     44      -9.4784      2.00000
     45      -9.1873      2.00000
     46      -8.9307      2.00000
     47      -8.9140      2.00000
     48      -8.6730      2.00000
     49      -8.4528      2.00000
     50      -8.2208      2.00000
     51      -7.9606      2.00000
     52      -7.8177      2.00000
     53      -7.7547      2.00000
     54      -7.6824      2.00000
     55      -7.3977      2.00000
     56      -7.2716      2.00000
     57      -7.0713      2.00000
     58      -6.5348      2.00000
     59      -5.7665      2.00000
     60      -5.4780      2.00000
[...]
     64      -3.5874      0.00000
     65      -3.0669      0.00000
     66      -2.2911      0.00000
     67      -2.0635      0.00000
     68      -1.5059      0.00000
     69      -0.6532      0.00000
     70      -0.2945      0.00000
     71       0.1441      0.00000
     72       0.1842      0.00000
     73       0.2170      0.00000
     74       0.3636      0.00000
     75       0.5996      0.00000
     76       0.6986      0.00000
     77       0.9295      0.00000
     78       0.9381      0.00000

 soft charge-density along one line, spin component           1
         0         1         2         3         4         5         6         7         8         9
 total charge-density along one line

------------------------ aborting loop because EDIFF is reached ----------------------------------------

  Hirshfeld charges:
            ion         q(e)
      1     C           0.002
      2     C          -0.008
      3     C           0.001
      4     C          -0.007
      5     C           0.003
      6     C           0.009
      7     C          -0.003
      8     C           0.008
      9     C           0.001
     10     C          -0.011
     11     C           0.001
     12     C          -0.017
     13     C          -0.006
     14     C           0.025
     15     C          -0.006
     16     C          -0.016
     17     C           0.002
     18     C           0.009
     19     C          -0.009
     20     C           0.018
     21     C           0.021
     22     C          -0.008
     23     C           0.009
     24     C          -0.002
     25     C           0.010
     26     C          -0.006
     27     C          -0.018
     28     C          -0.006
     29     C           0.010
     30     C          -0.002
     31     C          -0.003

  Tkatchenko/Scheffler method for vdW energy calculation

  Parameters of vdW forcefield:
            C6ts              R0ts           ALPHAts        RELVOL
            (au)              (au)            (au)
   C          32.915          3.388         10.085          0.840
   C          32.909          3.388         10.084          0.840
   C          32.937          3.389         10.089          0.841
   C          32.895          3.388         10.082          0.840
   C          32.903          3.388         10.083          0.840
   C          33.007          3.390         10.099          0.842
   C          32.946          3.389         10.090          0.841
   C          33.015          3.390         10.101          0.842
   C          32.932          3.389         10.088          0.841
   C          32.913          3.388         10.085          0.840
   C          32.929          3.389         10.087          0.841
   C          33.408          3.397         10.160          0.847
   C          33.879          3.405         10.232          0.853
   C          35.520          3.432         10.477          0.873
   C          33.878          3.405         10.232          0.853
   C          33.399          3.397         10.159          0.847
   C          32.880          3.388         10.080          0.840
   C          32.959          3.389         10.092          0.841
   C          33.830          3.404         10.224          0.852
   C          35.383          3.429         10.456          0.871
   C          35.334          3.429         10.449          0.871
   C          33.808          3.403         10.221          0.852
   C          32.958          3.389         10.092          0.841
   C          32.917          3.388         10.085          0.840
   C          32.994          3.390         10.097          0.841
   C          33.838          3.404         10.226          0.852
   C          33.418          3.397         10.162          0.847
   C          33.818          3.404         10.223          0.852
   C          32.984          3.390         10.096          0.841
   C          32.915          3.388         10.085          0.840
   C          32.865          3.387         10.078          0.840
  Edisp (eV):   -2.52860

  FORCE on cell =-STRESS in cart. coord.  units (eV):
  Direction    XX          YY          ZZ          XY          YZ          ZX
  Alpha Z    18.93415    18.93415    18.93415
  Ewald   65197.01767 65195.10680-69270.79588    -0.91457     0.18710     0.07233
  Hartree 64557.75394 64556.43097-64327.28204    -1.22451     0.18778     0.09771
  E(xc)    -458.89288  -458.89990  -476.06068    -0.00371    -0.00010    -0.00026
  Local  ************************132020.22016     2.16053    -0.37834    -0.15931
  n-local  -103.13312  -103.26971  -103.07477    -0.09910    -0.00030     0.00592
  augment   -11.94985   -11.94636   -10.74239     0.00131     0.00001    -0.00016
  Kinetic  1843.27232  1843.60870  2148.34720     0.19024     0.00153    -0.01772
  Fock        0.00000     0.00000     0.00000     0.00000     0.00000     0.00000
  vdW        -3.07391    -3.07194     0.00801     0.00221    -0.00000     0.00001
  Total      -0.29713    -0.33976    -0.44623     0.11239    -0.00232    -0.00149
  in kB      -0.11418    -0.13056    -0.17148     0.04319    -0.00089    -0.00057

 VOLUME and BASIS-vectors are now :
  energy-cutoff  :      850.00
  volume of cell :     4169.35
      direct lattice vectors                 reciprocal lattice vectors
     9.816206797  0.007065829  0.000009519     0.101914748 -0.058908990 -0.000000011
     4.920842279  8.513240569  0.000017268    -0.000084587  0.117512977 -0.000000173
     0.000047872  0.000073598 49.912578381    -0.000000019 -0.000000029  0.020035030

  length of vectors
     9.816209340  9.833104989 49.912578381     0.117715270  0.117513007  0.020035030

 FORCES acting on ions
    electron-ion (+dipol)            ewald-force                    non-local-force                 convergence-correction
   0.377E+01 0.269E+01 0.202E-02   -.344E+01 -.253E+01 -.276E-02   -.303E+00 -.157E+00 0.109E-02   -.222E-01 -.150E-01 -.428E-03
   0.273E+01 0.630E+00 0.906E-02   -.261E+01 -.533E+00 -.981E-02   -.611E-01 -.376E-01 0.604E-03   -.269E-01 -.189E-01 -.619E-04
   0.444E+01 -.242E+01 0.792E-02   -.428E+01 0.224E+01 -.851E-02   -.190E+00 0.881E-01 0.449E-03   -.426E-01 0.502E-01 0.153E-04
   0.792E+00 -.280E+01 -.349E-02   -.786E+00 0.268E+01 0.315E-02   0.124E-01 0.107E+00 0.209E-03   -.490E-02 0.480E-01 0.610E-04
   -.528E+00 -.444E+01 -.646E-02   0.571E+00 0.406E+01 0.608E-02   -.213E-01 0.329E+00 -.209E-03   -.113E-01 0.238E-01 0.456E-03
   -.113E+02 0.560E+01 -.978E-02   0.107E+02 -.520E+01 0.800E-02   0.542E+00 -.361E+00 0.596E-02   0.818E-01 -.184E-01 -.370E-02
   -.457E+01 0.250E+01 -.305E-02   0.444E+01 -.240E+01 0.259E-02   0.111E+00 -.569E-01 0.528E-03   0.559E-01 -.443E-01 -.110E-04
   -.106E+02 0.706E+01 -.115E-01   0.991E+01 -.672E+01 0.803E-02   0.585E+00 -.298E+00 -.348E-03   0.610E-01 -.778E-01 0.361E-02
   0.537E+00 0.456E+01 -.976E-02   -.520E+00 -.424E+01 0.955E-02   -.376E-01 -.249E+00 -.169E-03   -.581E-02 -.894E-01 0.487E-03
   -.160E+01 0.895E+00 -.103E-01   0.150E+01 -.801E+00 0.118E-01   0.760E-01 -.317E-01 -.118E-02   0.257E-01 -.241E-01 0.338E-04
   -.369E+01 -.259E+01 -.860E-02   0.348E+01 0.237E+01 0.961E-02   0.188E+00 0.130E+00 -.519E-03   0.406E-01 0.558E-01 -.479E-03
   -.183E+02 -.119E+02 0.407E-01   0.177E+02 0.116E+02 -.418E-01   0.389E+00 0.199E+00 0.384E-02   0.125E+00 0.875E-01 -.267E-02
   -.290E+02 -.235E+01 0.283E-01   0.281E+02 0.155E+01 -.278E-01   0.805E+00 0.668E+00 0.319E-02   0.202E+00 0.671E-01 -.394E-02
   -.993E+02 0.571E+02 0.550E-01   0.980E+02 -.564E+02 -.606E-01   0.117E+01 -.672E+00 0.271E-02   0.210E+00 -.105E+00 0.272E-04
   -.126E+02 0.264E+02 -.901E-02   0.127E+02 -.252E+02 0.573E-02   -.183E+00 -.104E+01 -.139E-02   0.782E-01 -.209E+00 0.385E-02
   0.123E+01 0.220E+02 -.780E-02   -.127E+01 -.213E+02 0.786E-02   0.413E-01 -.445E+00 -.356E-02   0.136E-01 -.180E+00 0.260E-02
   -.319E+01 0.175E+01 0.129E-01   0.286E+01 -.154E+01 -.124E-01   0.289E+00 -.174E+00 -.814E-03   0.272E-01 -.312E-01 0.301E-04
   -.158E+01 -.121E+02 -.174E-01   0.156E+01 0.113E+02 0.134E-01   -.270E-01 0.627E+00 0.165E-02   0.323E-01 0.709E-01 0.261E-02
   -.141E+02 -.237E+02 -.623E-01   0.130E+02 0.232E+02 0.619E-01   0.961E+00 0.339E+00 0.729E-03   0.128E+00 0.142E+00 0.147E-03
   -.287E+01 -.115E+03 -.156E-01   0.281E+01 0.115E+03 0.390E-01   0.117E-02 0.331E+00 -.157E-01   0.559E-02 0.244E+00 -.556E-02
   0.988E+02 0.599E+02 -.192E+00   -.983E+02 -.596E+02 0.222E+00   -.267E+00 -.150E+00 -.322E-01   -.204E+00 -.108E+00 0.577E-02
   0.138E+02 0.239E+02 0.784E-01   -.140E+02 -.226E+02 -.819E-01   0.173E+00 -.101E+01 0.442E-02   -.592E-01 -.242E+00 -.639E-04
   0.968E+01 0.739E+01 0.279E-01   -.904E+01 -.698E+01 -.313E-01   -.551E+00 -.299E+00 0.546E-02   -.691E-01 -.987E-01 -.260E-02
   -.109E+01 -.438E+01 0.222E-03   0.111E+01 0.421E+01 0.108E-03   0.461E-02 0.113E+00 0.901E-04   -.309E-04 0.627E-01 -.293E-03
   0.422E+00 -.130E+02 0.261E-01   -.454E+00 0.123E+02 -.277E-01   0.260E-01 0.606E+00 0.341E-02   -.306E-01 0.730E-01 -.267E-02
   0.143E+02 -.252E+02 0.922E-01   -.131E+02 0.247E+02 -.909E-01   -.108E+01 0.302E+00 0.291E-03   -.126E+00 0.146E+00 -.281E-02
   0.201E+02 -.116E+02 -.213E-01   -.196E+02 0.113E+02 0.306E-01   -.434E+00 0.276E+00 -.964E-02   -.126E+00 0.103E+00 0.150E-03
   0.288E+02 0.496E+00 0.427E-01   -.278E+02 -.143E+01 -.462E-01   -.814E+00 0.769E+00 0.308E-03   -.224E+00 0.964E-01 0.308E-02
   0.114E+02 0.612E+01 0.229E-01   -.108E+02 -.574E+01 -.269E-01   -.509E+00 -.319E+00 0.184E-03   -.105E+00 -.170E-01 0.283E-02
   0.316E+01 0.294E+01 -.123E-01   -.298E+01 -.284E+01 0.128E-01   -.939E-01 -.513E-01 -.879E-03   -.737E-01 -.541E-01 0.345E-03
   -.461E+00 0.297E+00 -.129E-01   0.454E+00 -.292E+00 0.158E-01   -.313E-03 -.851E-02 -.259E-02   -.542E-02 -.106E-01 0.110E-04
   -.748E+00 0.548E+00 0.332E-01   0.851E-13 0.213E-13 0.763E-16   0.802E+00 -.468E+00 -.340E-01   -.486E-01 -.729E-01 0.831E-03

 POSITION                                       TOTAL-FORCE (eV/Angst)
      0.00366      0.00039     21.96151         0.004377     -0.016526     -0.000091
      1.22452      0.71096     21.96151         0.033122      0.043877     -0.000208
      1.22601      2.12973     21.96152        -0.072917     -0.034615     -0.000115
      2.45388      2.83772     21.96154         0.012993      0.036487     -0.000075
      2.46084      4.25114     21.96155         0.010289     -0.025879     -0.000138
      3.69959      4.96523     21.96155         0.006191      0.024540      0.000486
     13.51254      6.38705     21.96156         0.032745      0.002955      0.000058
      4.92435      7.08370     21.96155        -0.021091     -0.034405     -0.000246
      2.45205      0.00329     21.96155        -0.026028     -0.018348      0.000107
      3.67898      0.71152     21.96156        -0.001335      0.040923      0.000274
      3.68018      2.12901     21.96155         0.014256     -0.038126      0.000007
      4.89561      2.83057     21.96147        -0.066850     -0.009020      0.000117
      4.95028      4.24210     21.96146         0.032668     -0.083182     -0.000186
      6.14072      4.96660     21.96141         0.077930     -0.033616     -0.002902
      6.17575      6.36045     21.96154         0.064166     -0.001540     -0.000819
      7.37113      7.11296     21.96156         0.012464      0.057658     -0.000901
      4.90255      0.00549     21.96152        -0.019449      0.003890     -0.000230
      6.13816      0.71519     21.96158        -0.020142     -0.016698      0.000254
      6.13555      2.15616     21.96167        -0.022523      0.001226      0.000443
      7.35125      2.81365     21.96163        -0.050239     -0.029791      0.002203
      8.61519      4.99551     21.96203         0.002275      0.070871      0.004550
      8.57602      6.37640     21.96146        -0.047704      0.042317      0.000906
      9.82542      7.09413     21.96149         0.030800      0.020432     -0.000519
     12.28226      8.52013     21.96156         0.028476     -0.007780      0.000126
      8.58321      0.72104     21.96147        -0.034508     -0.004795     -0.000896
      8.58197      2.16765     21.96138         0.003757      0.031691     -0.001183
      9.82567      2.83879     21.96159         0.022205      0.037169     -0.000185
      9.78826      4.25246     21.96153        -0.024331     -0.095748     -0.000134
     11.04160      4.97307     21.96151         0.008536      0.047834     -0.000994
     11.05013      6.38789     21.96157         0.021719      0.001860     -0.000005
     12.28215      7.09850     21.96159        -0.011848     -0.013661      0.000297
    total drift:                                0.004662      0.007076      0.000065

  FREE ENERGIE OF THE ION-ELECTRON SYSTEM (eV)
  free  energy   TOTEN  =      -280.77038587 eV

  energy  without entropy=     -280.77038587  energy(sigma->0) =     -280.77038587

 d Force = 0.2121551E-02[-0.350E-03, 0.459E-02]  d Energy = 0.4521606E-02-0.240E-02
 d Force =-0.5500792E-01[-0.689E-01,-0.412E-01]  d Ewald  =-0.3918201E+02 0.391E+02

 Quasi-Newton relaxation of ions (Broydens 2nd method)
  g(Force)  = 0.389E-02   g(Stress)= 0.666E-03

 retain information from N=  1 steps
 eigenvalues of (default step * inverse Hessian matrix)
  average eigenvalue of G=   0.0863
 eigenvalue spectrum of G is  0.0863

 reached required accuracy - stopping structural energy minimisation